     Program PWSCF v.6.8 starts on 15Apr2024 at 14: 5:51

     R & G space division:  proc/nbgrp/npool/nimage =      32

     Reading input from bulk-MoS2-scf-SOC.in

     Current dimensions of program PWSCF are:
     Max number of different atomic species (ntypx) = 10
     Max number of k-points (npk) =  40000
     Max angular momentum in pseudopotentials (lmaxx) =  4
     Message from routine setup:
     At least one non s.o. pseudo

     Using Slab Decomposition

     bravais-lattice index     =            4
     lattice parameter (alat)  =       5.9526  a.u.
     unit-cell volume          =     717.2760 (a.u.)^3
     number of atoms/cell      =            6
     number of atomic types    =            2
     number of electrons       =        52.00
     number of Kohn-Sham states=           52
     kinetic-energy cutoff     =      70.0000  Ry
     charge density cutoff     =     280.0000  Ry
     scf convergence threshold =      1.0E-06
     mixing beta               =       0.7000
     number of iterations used =            8  plain     mixing
     Exchange-correlation= PBE
                           (   1   4   3   4   0   0   0)
     Non magnetic calculation with spin-orbit

     celldm(1)=   5.952637  celldm(2)=   0.000000  celldm(3)=   3.926697
     celldm(4)=   0.000000  celldm(5)=   0.000000  celldm(6)=   0.000000

     crystal axes: (cart. coord. in units of alat)
               a(1) = (   1.000000   0.000000   0.000000 )
               a(2) = (  -0.500000   0.866025   0.000000 )
               a(3) = (   0.000000   0.000000   3.926697 )

     reciprocal axes: (cart. coord. in units 2 pi/alat)
               b(1) = (  1.000000  0.577350  0.000000 )
               b(2) = (  0.000000  1.154701  0.000000 )
               b(3) = (  0.000000  0.000000  0.254667 )

     PseudoPot. # 1 for S  read from file:
     /exports/commonscratch/sgrillo/MAURIZIA/MoS2/pseudos/S.upf
     MD5 check sum: b72b6a9ca752e39de1a6cc592280dae2
     Pseudo is Norm-conserving + core correction, Zval =  6.0
     Generated using ONCVPSP code by D. R. Hamann
     Using radial grid of 1148 points,  6 beta functions with:
                l(1) =   0
                l(2) =   0
                l(3) =   1
                l(4) =   1
                l(5) =   2
                l(6) =   2

     PseudoPot. # 2 for Mo read from file:
     /exports/commonscratch/sgrillo/MAURIZIA/MoS2/pseudos/Mo.upf
     MD5 check sum: 7ca7a9feba7bf08d88d14bc7fbf60c1e
     Pseudo is Norm-conserving + core correction, Zval = 14.0
     Generated using ONCVPSP code by D. R. Hamann
     Using radial grid of 1640 points,  6 beta functions with:
                l(1) =   0
                l(2) =   0
                l(3) =   1
                l(4) =   1
                l(5) =   2
                l(6) =   2

     atomic species   valence    mass     pseudopotential
        S              6.00    32.06500     S ( 1.00)
        Mo            14.00    95.94000     Mo( 1.00)

     No symmetry found

                                    s                        frac. trans.

      isym =  1     identity

 cryst.   s( 1) = (     1          0          0      )
                  (     0          1          0      )
                  (     0          0          1      )

 cart.    s( 1) = (  1.0000000  0.0000000  0.0000000 )
                  (  0.0000000  1.0000000  0.0000000 )
                  (  0.0000000  0.0000000  1.0000000 )

     double point group C_1 (1)
     there are  2 classes and  1 irreducible representations
     the character table:

       E     -E

G_2    1.00 -1.00

     the symmetry operations in each class and the name of the first element:

     E             1
          identity
     -E           -1
          identity E

   Cartesian axes

     site n.     atom                  positions (alat units)
         1           Mo  tau(   1) = (   0.5030286   0.2904237   0.4209605  )
         2           S   tau(   2) = (   0.0000000   0.5808475  -0.0777423  )
         3           S   tau(   3) = (   0.0000000   0.5808475   0.9196572  )
         4           Mo  tau(   4) = (   0.0000000   0.5808475   2.3842486  )
         5           S   tau(   5) = (   0.5030286   0.2904237   1.8855498  )
         6           S   tau(   6) = (   0.5030286   0.2904237   2.8829507  )

   Crystallographic axes

     site n.     atom                  positions (cryst. coord.)
         1           Mo  tau(   1) = (  0.6707049  0.3353524  0.1072047  )
         2           S   tau(   2) = (  0.3353524  0.6707049 -0.0197984  )
         3           S   tau(   3) = (  0.3353524  0.6707049  0.2342063  )
         4           Mo  tau(   4) = (  0.3353524  0.6707049  0.6071893  )
         5           S   tau(   5) = (  0.6707049  0.3353524  0.4801872  )
         6           S   tau(   6) = (  0.6707049  0.3353524  0.7341923  )

     number of k points=   244
                       cart. coord. in units 2pi/alat
        k(    1) = (   0.0000000   0.0000000   0.0000000), wk =   0.0020576
        k(    2) = (   0.0000000   0.0000000   0.0424445), wk =   0.0041152
        k(    3) = (   0.0000000   0.0000000   0.0848890), wk =   0.0041152
        k(    4) = (   0.0000000   0.0000000  -0.1273335), wk =   0.0020576
        k(    5) = (   0.0000000   0.1283001   0.0000000), wk =   0.0041152
        k(    6) = (   0.0000000   0.1283001   0.0424445), wk =   0.0041152
        k(    7) = (   0.0000000   0.1283001   0.0848890), wk =   0.0041152
        k(    8) = (   0.0000000   0.1283001  -0.1273335), wk =   0.0041152
        k(    9) = (   0.0000000   0.2566001   0.0000000), wk =   0.0041152
        k(   10) = (   0.0000000   0.2566001   0.0424445), wk =   0.0041152
        k(   11) = (   0.0000000   0.2566001   0.0848890), wk =   0.0041152
        k(   12) = (   0.0000000   0.2566001  -0.1273335), wk =   0.0041152
        k(   13) = (   0.0000000   0.3849002   0.0000000), wk =   0.0041152
        k(   14) = (   0.0000000   0.3849002   0.0424445), wk =   0.0041152
        k(   15) = (   0.0000000   0.3849002   0.0848890), wk =   0.0041152
        k(   16) = (   0.0000000   0.3849002  -0.1273335), wk =   0.0041152
        k(   17) = (   0.0000000   0.5132002   0.0000000), wk =   0.0041152
        k(   18) = (   0.0000000   0.5132002   0.0424445), wk =   0.0041152
        k(   19) = (   0.0000000   0.5132002   0.0848890), wk =   0.0041152
        k(   20) = (   0.0000000   0.5132002  -0.1273335), wk =   0.0041152
        k(   21) = (   0.1111111   0.1924501   0.0000000), wk =   0.0041152
        k(   22) = (   0.1111111   0.1924501   0.0424445), wk =   0.0041152
        k(   23) = (   0.1111111   0.1924501   0.0848890), wk =   0.0041152
        k(   24) = (   0.1111111   0.1924501  -0.1273335), wk =   0.0041152
        k(   25) = (   0.1111111   0.3207501   0.0000000), wk =   0.0041152
        k(   26) = (   0.1111111   0.3207501   0.0424445), wk =   0.0041152
        k(   27) = (   0.1111111   0.3207501   0.0848890), wk =   0.0041152
        k(   28) = (   0.1111111   0.3207501  -0.1273335), wk =   0.0041152
        k(   29) = (   0.1111111   0.4490502   0.0000000), wk =   0.0041152
        k(   30) = (   0.1111111   0.4490502   0.0424445), wk =   0.0041152
        k(   31) = (   0.1111111   0.4490502   0.0848890), wk =   0.0041152
        k(   32) = (   0.1111111   0.4490502  -0.1273335), wk =   0.0041152
        k(   33) = (   0.1111111   0.5773503   0.0000000), wk =   0.0041152
        k(   34) = (   0.1111111   0.5773503   0.0424445), wk =   0.0041152
        k(   35) = (   0.1111111   0.5773503   0.0848890), wk =   0.0041152
        k(   36) = (   0.1111111   0.5773503  -0.1273335), wk =   0.0041152
        k(   37) = (   0.2222222   0.3849002   0.0000000), wk =   0.0041152
        k(   38) = (   0.2222222   0.3849002   0.0424445), wk =   0.0041152
        k(   39) = (   0.2222222   0.3849002   0.0848890), wk =   0.0041152
        k(   40) = (   0.2222222   0.3849002  -0.1273335), wk =   0.0041152
        k(   41) = (   0.2222222   0.5132002   0.0000000), wk =   0.0041152
        k(   42) = (   0.2222222   0.5132002   0.0424445), wk =   0.0041152
        k(   43) = (   0.2222222   0.5132002   0.0848890), wk =   0.0041152
        k(   44) = (   0.2222222   0.5132002  -0.1273335), wk =   0.0041152
        k(   45) = (   0.3333333   0.5773503   0.0000000), wk =   0.0041152
        k(   46) = (   0.3333333   0.5773503   0.0424445), wk =   0.0041152
        k(   47) = (   0.3333333   0.5773503   0.0848890), wk =   0.0041152
        k(   48) = (   0.3333333   0.5773503  -0.1273335), wk =   0.0041152
        k(   49) = (  -0.1111111   0.0641500   0.0000000), wk =   0.0041152
        k(   50) = (   0.1111111   0.0641500   0.0000000), wk =   0.0041152
        k(   51) = (   0.0000000  -0.1283001   0.0424445), wk =   0.0041152
        k(   52) = (  -0.1111111   0.0641500   0.0424445), wk =   0.0041152
        k(   53) = (   0.1111111   0.0641500   0.0424445), wk =   0.0041152
        k(   54) = (  -0.1111111  -0.0641500   0.0424445), wk =   0.0041152
        k(   55) = (   0.1111111  -0.0641500   0.0424445), wk =   0.0041152
        k(   56) = (   0.0000000  -0.1283001   0.0848890), wk =   0.0041152
        k(   57) = (  -0.1111111   0.0641500   0.0848890), wk =   0.0041152
        k(   58) = (   0.1111111   0.0641500   0.0848890), wk =   0.0041152
        k(   59) = (  -0.1111111  -0.0641500   0.0848890), wk =   0.0041152
        k(   60) = (   0.1111111  -0.0641500   0.0848890), wk =   0.0041152
[...]
        k(  230) = (  -0.3333333   0.4490502   0.0848890), wk =   0.0041152
        k(  231) = (   0.5555556   0.0641500   0.0848890), wk =   0.0041152
        k(  232) = (  -0.5555556  -0.0641500   0.0848890), wk =   0.0041152
        k(  233) = (   0.3333333  -0.4490502   0.0848890), wk =   0.0041152
        k(  234) = (  -0.3333333  -0.4490502  -0.0848890), wk =   0.0041152
        k(  235) = (   0.5555556  -0.0641500  -0.0848890), wk =   0.0041152
        k(  236) = (  -0.5555556   0.0641500  -0.0848890), wk =   0.0041152
        k(  237) = (   0.3333333   0.4490502  -0.0848890), wk =   0.0041152
        k(  238) = (  -0.2222222   0.5132002   0.1273335), wk =   0.0041152
        k(  239) = (  -0.3333333   0.4490502  -0.1273335), wk =   0.0041152
        k(  240) = (   0.5555556   0.0641500  -0.1273335), wk =   0.0041152
        k(  241) = (  -0.3333333  -0.4490502   0.1273335), wk =   0.0041152
        k(  242) = (   0.5555556  -0.0641500   0.1273335), wk =   0.0041152
        k(  243) = (  -0.3333333  -0.5773503   0.0424445), wk =   0.0041152
        k(  244) = (  -0.3333333  -0.5773503   0.0848890), wk =   0.0041152

                       cryst. coord.
        k(    1) = (   0.0000000   0.0000000   0.0000000), wk =   0.0020576
        k(    2) = (   0.0000000   0.0000000   0.1666667), wk =   0.0041152
        k(    3) = (   0.0000000   0.0000000   0.3333333), wk =   0.0041152
        k(    4) = (   0.0000000   0.0000000  -0.5000000), wk =   0.0020576
        k(    5) = (   0.0000000   0.1111111   0.0000000), wk =   0.0041152
        k(    6) = (   0.0000000   0.1111111   0.1666667), wk =   0.0041152
        k(    7) = (   0.0000000   0.1111111   0.3333333), wk =   0.0041152
        k(    8) = (   0.0000000   0.1111111  -0.5000000), wk =   0.0041152
        k(    9) = (   0.0000000   0.2222222   0.0000000), wk =   0.0041152
        k(   10) = (   0.0000000   0.2222222   0.1666667), wk =   0.0041152
        k(   11) = (   0.0000000   0.2222222   0.3333333), wk =   0.0041152
        k(   12) = (   0.0000000   0.2222222  -0.5000000), wk =   0.0041152
        k(   13) = (   0.0000000   0.3333333   0.0000000), wk =   0.0041152
        k(   14) = (   0.0000000   0.3333333   0.1666667), wk =   0.0041152
        k(   15) = (   0.0000000   0.3333333   0.3333333), wk =   0.0041152
        k(   16) = (   0.0000000   0.3333333  -0.5000000), wk =   0.0041152
        k(   17) = (   0.0000000   0.4444444   0.0000000), wk =   0.0041152
        k(   18) = (   0.0000000   0.4444444   0.1666667), wk =   0.0041152
        k(   19) = (   0.0000000   0.4444444   0.3333333), wk =   0.0041152
        k(   20) = (   0.0000000   0.4444444  -0.5000000), wk =   0.0041152
        k(   21) = (   0.1111111   0.1111111   0.0000000), wk =   0.0041152
        k(   22) = (   0.1111111   0.1111111   0.1666667), wk =   0.0041152
        k(   23) = (   0.1111111   0.1111111   0.3333333), wk =   0.0041152
        k(   24) = (   0.1111111   0.1111111  -0.5000000), wk =   0.0041152
        k(   25) = (   0.1111111   0.2222222   0.0000000), wk =   0.0041152
        k(   26) = (   0.1111111   0.2222222   0.1666667), wk =   0.0041152
        k(   27) = (   0.1111111   0.2222222   0.3333333), wk =   0.0041152
        k(   28) = (   0.1111111   0.2222222  -0.5000000), wk =   0.0041152
        k(   29) = (   0.1111111   0.3333333   0.0000000), wk =   0.0041152
        k(   30) = (   0.1111111   0.3333333   0.1666667), wk =   0.0041152
        k(   31) = (   0.1111111   0.3333333   0.3333333), wk =   0.0041152
        k(   32) = (   0.1111111   0.3333333  -0.5000000), wk =   0.0041152
        k(   33) = (   0.1111111   0.4444444   0.0000000), wk =   0.0041152
        k(   34) = (   0.1111111   0.4444444   0.1666667), wk =   0.0041152
        k(   35) = (   0.1111111   0.4444444   0.3333333), wk =   0.0041152
        k(   36) = (   0.1111111   0.4444444  -0.5000000), wk =   0.0041152
        k(   37) = (   0.2222222   0.2222222   0.0000000), wk =   0.0041152
        k(   38) = (   0.2222222   0.2222222   0.1666667), wk =   0.0041152
        k(   39) = (   0.2222222   0.2222222   0.3333333), wk =   0.0041152
        k(   40) = (   0.2222222   0.2222222  -0.5000000), wk =   0.0041152
        k(   41) = (   0.2222222   0.3333333   0.0000000), wk =   0.0041152
        k(   42) = (   0.2222222   0.3333333   0.1666667), wk =   0.0041152
        k(   43) = (   0.2222222   0.3333333   0.3333333), wk =   0.0041152
        k(   44) = (   0.2222222   0.3333333  -0.5000000), wk =   0.0041152
        k(   45) = (   0.3333333   0.3333333   0.0000000), wk =   0.0041152
        k(   46) = (   0.3333333   0.3333333   0.1666667), wk =   0.0041152
        k(   47) = (   0.3333333   0.3333333   0.3333333), wk =   0.0041152
        k(   48) = (   0.3333333   0.3333333  -0.5000000), wk =   0.0041152
        k(   49) = (  -0.1111111   0.1111111   0.0000000), wk =   0.0041152
        k(   50) = (   0.1111111   0.0000000   0.0000000), wk =   0.0041152
        k(   51) = (   0.0000000  -0.1111111   0.1666667), wk =   0.0041152
        k(   52) = (  -0.1111111   0.1111111   0.1666667), wk =   0.0041152
        k(   53) = (   0.1111111   0.0000000   0.1666667), wk =   0.0041152
        k(   54) = (  -0.1111111   0.0000000   0.1666667), wk =   0.0041152
        k(   55) = (   0.1111111  -0.1111111   0.1666667), wk =   0.0041152
        k(   56) = (   0.0000000  -0.1111111   0.3333333), wk =   0.0041152
        k(   57) = (  -0.1111111   0.1111111   0.3333333), wk =   0.0041152
        k(   58) = (   0.1111111   0.0000000   0.3333333), wk =   0.0041152
        k(   59) = (  -0.1111111   0.0000000   0.3333333), wk =   0.0041152
        k(   60) = (   0.1111111  -0.1111111   0.3333333), wk =   0.0041152
[...]
        k(  230) = (  -0.3333333   0.5555556   0.3333333), wk =   0.0041152
        k(  231) = (   0.5555556  -0.2222222   0.3333333), wk =   0.0041152
        k(  232) = (  -0.5555556   0.2222222   0.3333333), wk =   0.0041152
        k(  233) = (   0.3333333  -0.5555556   0.3333333), wk =   0.0041152
        k(  234) = (  -0.3333333  -0.2222222  -0.3333333), wk =   0.0041152
        k(  235) = (   0.5555556  -0.3333333  -0.3333333), wk =   0.0041152
        k(  236) = (  -0.5555556   0.3333333  -0.3333333), wk =   0.0041152
        k(  237) = (   0.3333333   0.2222222  -0.3333333), wk =   0.0041152
        k(  238) = (  -0.2222222   0.5555556   0.5000000), wk =   0.0041152
        k(  239) = (  -0.3333333   0.5555556  -0.5000000), wk =   0.0041152
        k(  240) = (   0.5555556  -0.2222222  -0.5000000), wk =   0.0041152
        k(  241) = (  -0.3333333  -0.2222222   0.5000000), wk =   0.0041152
        k(  242) = (   0.5555556  -0.3333333   0.5000000), wk =   0.0041152
        k(  243) = (  -0.3333333  -0.3333333   0.1666667), wk =   0.0041152
        k(  244) = (  -0.3333333  -0.3333333   0.3333333), wk =   0.0041152

     Initial potential from superposition of free atoms

     starting charge   51.99700, renormalised to   52.00000
     Starting wfcs are   72 randomized atomic wfcs

     Self-consistent Calculation

     iteration #  1     ecut=    70.00 Ry     beta= 0.70
     Davidson diagonalization with overlap

     ethr =  1.00E-02,  avg # of iterations =  2.0

     total energy              =    -368.99125829 Ry
     estimated scf accuracy    <       0.89518865 Ry

[...]

     total energy              =    -369.52556671 Ry
     estimated scf accuracy    <       0.00000138 Ry

     iteration # 13     ecut=    70.00 Ry     beta= 0.70
     Davidson diagonalization with overlap

     ethr =  2.65E-09,  avg # of iterations =  4.9

     End of self-consistent calculation

          k = 0.0000 0.0000 0.0000 (  7053 PWs)   bands (ev):

   -50.3929 -50.3929 -50.3928 -50.3928 -24.5531 -24.5531 -24.5529 -24.5529
   -24.3073 -24.3073 -24.3071 -24.3071 -24.3043 -24.3043 -24.3042 -24.3042
    -3.8818  -3.8818  -3.6151  -3.6151  -2.6768  -2.6768  -2.2411  -2.2411
     4.2204   4.2204   5.2360   5.2360   7.5782   7.5782   7.8748   7.8748
     7.8869   7.8869   7.8973   7.8973   7.9100   7.9100   8.9428   8.9428
     8.9870   8.9870   9.0416   9.0416   9.0853   9.0853   9.8629   9.8629
     9.9008   9.9008  11.0702  11.0702

     occupation numbers
     1.0000   1.0000   1.0000   1.0000   1.0000   1.0000   1.0000   1.0000
     1.0000   1.0000   1.0000   1.0000   1.0000   1.0000   1.0000   1.0000
     1.0000   1.0000   1.0000   1.0000   1.0000   1.0000   1.0000   1.0000
     1.0000   1.0000   1.0000   1.0000   1.0000   1.0000   1.0000   1.0000
     1.0000   1.0000   1.0000   1.0000   1.0000   1.0000   1.0000   1.0000
     1.0000   1.0000   1.0000   1.0000   1.0000   1.0000   1.0000   1.0000
     1.0000   1.0000   1.0000   1.0000

[...]

          k =-0.1111 0.0642 0.0000 (  7035 PWs)   bands (ev):

[...]

          k = 0.5556-0.0642 0.1273 (  7118 PWs)   bands (ev):

[...]

          k =-0.3333-0.5774 0.0849 (  7134 PWs)   bands (ev):

   -50.3447 -50.3447 -50.3446 -50.3446 -24.6148 -24.6148 -24.6147 -24.6147
   -24.5686 -24.5686 -24.5685 -24.5685 -24.4589 -24.4589 -24.4589 -24.4589
    -1.4932  -1.4932  -1.4921  -1.4921  -1.4733  -1.4733  -1.4723  -1.4723
     4.9025   4.9025   4.9815   4.9815   5.7271   5.7271   5.7302   5.7302
     6.2469   6.2469   6.3755   6.3755   6.7324   6.7324   6.7351   6.7351
     7.5659   7.5659   7.5712   7.5712   8.2552   8.2552   8.2579   8.2579
    10.3999  10.3999  10.4811  10.4811

     occupation numbers
     1.0000   1.0000   1.0000   1.0000   1.0000   1.0000   1.0000   1.0000
     1.0000   1.0000   1.0000   1.0000   1.0000   1.0000   1.0000   1.0000
     1.0000   1.0000   1.0000   1.0000   1.0000   1.0000   1.0000   1.0000
     1.0000   1.0000   1.0000   1.0000   1.0000   1.0000   1.0000   1.0000
     1.0000   1.0000   1.0000   1.0000   1.0000   1.0000   1.0000   1.0000
     1.0000   1.0000   1.0000   1.0000   1.0000   1.0000   1.0000   1.0000
     1.0000   1.0000   1.0000   1.0000

     highest occupied level (ev):    11.0702

!    total energy              =    -369.52556701 Ry
     estimated scf accuracy    <       0.00000028 Ry

     The total energy is the sum of the following terms:
     one-electron contribution =    -172.28768658 Ry
     hartree contribution      =     108.72316282 Ry
     xc contribution           =     -66.52659236 Ry
     ewald contribution        =    -239.43445088 Ry

     convergence has been achieved in  13 iterations

     Writing output data file ./tmp/BULK-MoS2.save/

     General routines

     Parallel routines

   This run was terminated on:  14:13:11  15Apr2024

   JOB DONE.