     Program PWSCF v.7.2 starts on  8Apr2024 at 12:17:31

     Waiting for input...
     Reading input from standard input

     Current dimensions of program PWSCF are:
     Max number of different atomic species (ntypx) = 10
     Max number of k-points (npk) =  40000
     Max angular momentum in pseudopotentials (lmaxx) =  4

     K-points division:     npool     =       2
     R & G space division:  proc/nbgrp/npool/nimage =       7
     Subspace diagonalization in iterative solution of the eigenvalue problem:
     a serial algorithm will be used

     Using Slab Decomposition

     bravais-lattice index     =            4
     lattice parameter (alat)  =       4.6350  a.u.
     unit-cell volume          =     517.4056 (a.u.)^3
     number of atoms/cell      =            4
     number of atomic types    =            2
     number of electrons       =        16.00
     number of Kohn-Sham states=            8
     kinetic-energy cutoff     =      80.0000  Ry
     charge density cutoff     =     320.0000  Ry
     scf convergence threshold =      1.0E-06
     mixing beta               =       0.7000
     number of iterations used =            8  plain     mixing
     energy convergence thresh.=      1.0E-04
     force convergence thresh. =      1.0E-03
     press convergence thresh. =      5.0E-01
     Exchange-correlation= PBE
                           (   1   4   3   4   0   0   0)
     nstep                     =           50

     celldm(1)=   4.635000  celldm(2)=   0.000000  celldm(3)=   6.000000
     celldm(4)=   0.000000  celldm(5)=   0.000000  celldm(6)=   0.000000

     crystal axes: (cart. coord. in units of alat)
               a(1) = (   1.000000   0.000000   0.000000 )
               a(2) = (  -0.500000   0.866025   0.000000 )
               a(3) = (   0.000000   0.000000   6.000000 )

     reciprocal axes: (cart. coord. in units 2 pi/alat)
               b(1) = (  1.000000  0.577350  0.000000 )
               b(2) = (  0.000000  1.154701  0.000000 )
               b(3) = (  0.000000  0.000000  0.166667 )

     PseudoPot. # 1 for N  read from file:
     ../../../../Pseudo/PBE/N.upf
     MD5 check sum: d34365f73bb0e2ee98afc20ec3e87676
     Pseudo is Norm-conserving + core correction, Zval =  5.0
     Generated using ONCVPSP code by D. R. Hamann
     Using radial grid of 1058 points,  4 beta functions with:
                l(1) =   0
                l(2) =   0
                l(3) =   1
                l(4) =   1

     PseudoPot. # 2 for B  read from file:
     ../../../../Pseudo/PBE/B.upf
     MD5 check sum: 72f82fc31bc892420d0cab7e25c88ab8
     Pseudo is Norm-conserving + core correction, Zval =  3.0
     Generated using ONCVPSP code by D. R. Hamann
     Using radial grid of 1534 points,  4 beta functions with:
                l(1) =   0
                l(2) =   0
                l(3) =   1
                l(4) =   1

     atomic species   valence    mass     pseudopotential
        N              5.00    14.00670     N ( 1.00)
        B              3.00    10.80100     B ( 1.00)

      6 Sym. Ops. (no inversion) found

                                    s                        frac. trans.

      isym =  1     identity

 cryst.   s( 1) = (     1          0          0      )
                  (     0          1          0      )
                  (     0          0          1      )

 cart.    s( 1) = (  1.0000000  0.0000000  0.0000000 )
                  (  0.0000000  1.0000000  0.0000000 )
                  (  0.0000000  0.0000000  1.0000000 )

      isym =  2     120 deg rotation - cryst. axis [0,0,1]

[...]

      isym =  4     inv. 180 deg rotation - cart. axis [1,0,0]

[...]

      isym =  5     inv. 180 deg rotation - cryst. axis [0,1,0]

[...]

     point group C_3v (3m)
     there are  3 classes
     the character table:

       E     2C3   3s_v
A_1    1.00  1.00  1.00
A_2    1.00  1.00 -1.00
E      2.00 -1.00  0.00

     the symmetry operations in each class and the name of the first element:

     E        1
          identity
     2C3      2    3
          120 deg rotation - cryst. axis [0,0,1]
     3s_v     4    5    6
          inv. 180 deg rotation - cart. axis [1,0,0]

   Cartesian axes

     site n.     atom                  positions (alat units)
         1           B   tau(   1) = (   0.0000000   0.0000000   0.0000000  )
         2           N   tau(   2) = (  -0.0000000   0.5773503   0.0000000  )
         3           N   tau(   3) = (   0.0000000   0.0000000   1.5000000  )
         4           B   tau(   4) = (   0.5000000   0.2886751   1.5000000  )

   Crystallographic axes

     site n.     atom                  positions (cryst. coord.)
         1           B   tau(   1) = (  0.0000000  0.0000000  0.0000000  )
         2           N   tau(   2) = (  0.3333333  0.6666667  0.0000000  )
         3           N   tau(   3) = (  0.0000000  0.0000000  0.2500000  )
         4           B   tau(   4) = (  0.6666667  0.3333333  0.2500000  )

     number of k points=    19  Marzari-Vanderbilt smearing, width (Ry)=  0.0100
                       cart. coord. in units 2pi/alat
        k(    1) = (   0.0000000   0.0000000   0.0000000), wk =   0.0138889
        k(    2) = (   0.0000000   0.0962250   0.0000000), wk =   0.0833333
        k(    3) = (   0.0000000   0.1924501   0.0000000), wk =   0.0833333
        k(    4) = (   0.0000000   0.2886751   0.0000000), wk =   0.0833333
        k(    5) = (   0.0000000   0.3849002   0.0000000), wk =   0.0833333
        k(    6) = (   0.0000000   0.4811252   0.0000000), wk =   0.0833333
        k(    7) = (   0.0000000  -0.5773503   0.0000000), wk =   0.0416667
        k(    8) = (   0.0833333   0.1443376   0.0000000), wk =   0.0833333
        k(    9) = (   0.0833333   0.2405626   0.0000000), wk =   0.1666667
        k(   10) = (   0.0833333   0.3367877   0.0000000), wk =   0.1666667
        k(   11) = (   0.0833333   0.4330127   0.0000000), wk =   0.1666667
        k(   12) = (   0.0833333   0.5292377   0.0000000), wk =   0.1666667
        k(   13) = (   0.1666667   0.2886751   0.0000000), wk =   0.0833333
        k(   14) = (   0.1666667   0.3849002   0.0000000), wk =   0.1666667
        k(   15) = (   0.1666667   0.4811252   0.0000000), wk =   0.1666667
        k(   16) = (   0.1666667   0.5773503   0.0000000), wk =   0.0833333
        k(   17) = (   0.2500000   0.4330127   0.0000000), wk =   0.0833333
        k(   18) = (   0.2500000   0.5292377   0.0000000), wk =   0.1666667
        k(   19) = (   0.3333333   0.5773503   0.0000000), wk =   0.0277778

                       cryst. coord.
        k(    1) = (   0.0000000   0.0000000   0.0000000), wk =   0.0138889
        k(    2) = (   0.0000000   0.0833333   0.0000000), wk =   0.0833333
        k(    3) = (   0.0000000   0.1666667   0.0000000), wk =   0.0833333
        k(    4) = (   0.0000000   0.2500000   0.0000000), wk =   0.0833333
        k(    5) = (   0.0000000   0.3333333   0.0000000), wk =   0.0833333
        k(    6) = (   0.0000000   0.4166667   0.0000000), wk =   0.0833333
        k(    7) = (   0.0000000  -0.5000000   0.0000000), wk =   0.0416667
        k(    8) = (   0.0833333   0.0833333   0.0000000), wk =   0.0833333
        k(    9) = (   0.0833333   0.1666667   0.0000000), wk =   0.1666667
        k(   10) = (   0.0833333   0.2500000   0.0000000), wk =   0.1666667
        k(   11) = (   0.0833333   0.3333333   0.0000000), wk =   0.1666667
        k(   12) = (   0.0833333   0.4166667   0.0000000), wk =   0.1666667
        k(   13) = (   0.1666667   0.1666667   0.0000000), wk =   0.0833333
        k(   14) = (   0.1666667   0.2500000   0.0000000), wk =   0.1666667
        k(   15) = (   0.1666667   0.3333333   0.0000000), wk =   0.1666667
        k(   16) = (   0.1666667   0.4166667   0.0000000), wk =   0.0833333
        k(   17) = (   0.2500000   0.2500000   0.0000000), wk =   0.0833333
        k(   18) = (   0.2500000   0.3333333   0.0000000), wk =   0.1666667
        k(   19) = (   0.3333333   0.3333333   0.0000000), wk =   0.0277778

     Initial potential from superposition of free atoms

     starting charge      15.9995, renormalised to      16.0000

     negative rho (up, down):  4.533E-06 0.000E+00
     Starting wfcs are   16 randomized atomic wfcs

     Self-consistent Calculation

     iteration #  1     ecut=    80.00 Ry     beta= 0.70
     Davidson diagonalization with overlap

     ethr =  1.00E-02,  avg # of iterations =  2.0

     total energy              =     -53.33626692 Ry
     estimated scf accuracy    <       0.85283632 Ry

[...]

     negative rho (up, down):  1.189E-06 0.000E+00

[...]

     End of self-consistent calculation

          k = 0.0000 0.0000 0.0000 (  6307 PWs)   bands (ev):

   -18.8937 -18.8245  -6.7075  -6.1048  -2.1246  -2.1246  -2.0935  -2.0935

     occupation numbers
     1.0000   1.0000   1.0000   1.0000   1.0000   1.0000   1.0000   1.0000

[...]

     the Fermi energy is    -0.1099 ev

!    total energy              =     -53.62324205 Ry
     estimated scf accuracy    <       0.00000041 Ry
     smearing contrib. (-TS)   =       0.00000000 Ry
     internal energy E=F+TS    =     -53.62324205 Ry

     The total energy is F=E-TS. E is the sum of the following terms:
     one-electron contribution =    -269.59956528 Ry
     hartree contribution      =     139.94294539 Ry
     xc contribution           =     -17.50147752 Ry
     ewald contribution        =      93.53485537 Ry

     convergence has been achieved in  15 iterations

     Forces acting on atoms (cartesian axes, Ry/au):

     atom    1 type  2   force =     0.00000000    0.00000000   -0.00022095
     atom    2 type  1   force =     0.00000000    0.00000000   -0.00062413
     atom    3 type  1   force =     0.00000000    0.00000000    0.00042923
     atom    4 type  2   force =     0.00000000    0.00000000    0.00041585
     The non-local contrib.  to forces
     atom    1 type  2   force =     0.00000000   -0.00000000    0.00004042
     atom    2 type  1   force =     0.00000000    0.00000000   -0.00105255
     atom    3 type  1   force =     0.00000000    0.00000000    0.00103965
     atom    4 type  2   force =     0.00000000    0.00000000    0.00017576
     The ionic contribution  to forces
     atom    1 type  2   force =    -0.00000001    0.00000000   -8.10594868
     atom    2 type  1   force =     0.00000001   -0.00000000  -13.50706061
     atom    3 type  1   force =     0.00000001   -0.00000000   13.50877293
     atom    4 type  2   force =    -0.00000001    0.00000000    8.10423637
     The local contribution  to forces
     atom    1 type  2   force =     0.00000000   -0.00000000    8.10562908
     atom    2 type  1   force =     0.00000003   -0.00000002   13.50734139
     atom    3 type  1   force =     0.00000000    0.00000000  -13.50919671
     atom    4 type  2   force =     0.00000000   -0.00000000   -8.10392535
     The core correction contribution to forces
     atom    1 type  2   force =    -0.00000000   -0.00000000   -0.00000456
     atom    2 type  1   force =    -0.00000000    0.00000000    0.00005121
     atom    3 type  1   force =     0.00000000   -0.00000000   -0.00004911
[...]

[...]

     number of scf cycles    =  14
     number of bfgs steps    =  13

     enthalpy           old  =     -53.6334324766 Ry
     enthalpy           new  =     -53.6334352456 Ry

     CASE: enthalpy          _new < enthalpy          _old

     new trust radius        =       0.0025795734 bohr
     new conv_thr            =       0.0000000100 Ry

     new unit-cell volume =    562.32309 a.u.^3 (    83.32769 Ang^3 )
     density =      0.98873 g/cm^3

[...]

ATOMIC_POSITIONS (crystal)
B            -0.0000000000        0.0000000000       -0.0028264690
N             0.3333333330        0.6666666670       -0.0028434503
N             0.0000000000        0.0000000000        0.2528365787
B             0.6666666670        0.3333333330        0.2528333406

     Writing config-only to output data dir ./graphene.save/
     NEW-OLD atomic charge density approx. for the potential

     negative rho (up, down):  1.846E-08 0.000E+00
     extrapolated charge   15.98580, renormalised to   16.00000

[...]

     Total force =     0.000348     Total SCF correction =     0.000089
     SCF correction compared to forces is large: reduce conv_thr to get better values

[...]

     Energy error            =      1.3E-06 Ry
     Gradient error          =      1.8E-04 Ry/Bohr
     Cell gradient error     =      4.6E-01 kbar

     bfgs converged in  15 scf cycles and  14 bfgs steps
     (criteria: energy <  1.0E-04 Ry, force <  1.0E-03 Ry/Bohr, cell <  5.0E-01 kbar)

     End of BFGS Geometry Optimization

     Final enthalpy           =     -53.6334365069 Ry

     File ./graphene.bfgs deleted, as requested
Begin final coordinates
     new unit-cell volume =    562.32309 a.u.^3 (    83.32769 Ang^3 )
     density =      0.98873 g/cm^3

CELL_PARAMETERS (alat=  4.63500000)
   1.023556385  -0.000000000  -0.000000000
  -0.511778192   0.886425831   0.000000000
   0.000000000  -0.000000000   6.224185527

ATOMIC_POSITIONS (crystal)
B            -0.0000000000        0.0000000000       -0.0028264690
N             0.3333333330        0.6666666670       -0.0028434503
N             0.0000000000        0.0000000000        0.2528365787
B             0.6666666670        0.3333333330        0.2528333406
End final coordinates

     Writing config-only to output data dir ./graphene.save/

     Final scf calculation at the relaxed structure.
     The G-vectors are recalculated for the final unit cell
     Results may differ from those at the preceding step.

     Using Slab Decomposition

     bravais-lattice index     =            4
     lattice parameter (alat)  =       4.6350  a.u.
     unit-cell volume          =     562.3231 (a.u.)^3
     number of atoms/cell      =            4
     number of atomic types    =            2
     number of electrons       =        16.00
     number of Kohn-Sham states=            8
     kinetic-energy cutoff     =      80.0000  Ry
     charge density cutoff     =     320.0000  Ry
     scf convergence threshold =      1.0E-08
     mixing beta               =       0.7000
     number of iterations used =            8  plain     mixing
     press convergence thresh. =      5.0E-01
     Exchange-correlation= PBE
                           (   1   4   3   4   0   0   0)

     celldm(1)=   4.635000  celldm(2)=   0.000000  celldm(3)=   6.000000
     celldm(4)=   0.000000  celldm(5)=   0.000000  celldm(6)=   0.000000

     crystal axes: (cart. coord. in units of alat)
               a(1) = (   1.023556  -0.000000  -0.000000 )
               a(2) = (  -0.511778   0.886426   0.000000 )
               a(3) = (   0.000000  -0.000000   6.224186 )

     reciprocal axes: (cart. coord. in units 2 pi/alat)
               b(1) = (  0.976986  0.564063  0.000000 )
               b(2) = (  0.000000  1.128126  0.000000 )
               b(3) = (  0.000000 -0.000000  0.160664 )

     PseudoPot. # 1 for N  read from file:
     ../../../../Pseudo/PBE/N.upf
     MD5 check sum: d34365f73bb0e2ee98afc20ec3e87676
     Pseudo is Norm-conserving + core correction, Zval =  5.0
     Generated using ONCVPSP code by D. R. Hamann
     Using radial grid of 1058 points,  4 beta functions with:
                l(1) =   0
                l(2) =   0
                l(3) =   1
                l(4) =   1

     PseudoPot. # 2 for B  read from file:
     ../../../../Pseudo/PBE/B.upf
     MD5 check sum: 72f82fc31bc892420d0cab7e25c88ab8
     Pseudo is Norm-conserving + core correction, Zval =  3.0
     Generated using ONCVPSP code by D. R. Hamann
     Using radial grid of 1534 points,  4 beta functions with:
                l(1) =   0
                l(2) =   0
                l(3) =   1
                l(4) =   1

     atomic species   valence    mass     pseudopotential
        N              5.00    14.00670     N ( 1.00)
        B              3.00    10.80100     B ( 1.00)

      6 Sym. Ops. (no inversion) found

                                    s                        frac. trans.

      isym =  1     identity

[...]

      isym =  3     120 deg rotation - cryst. axis [0,0,-1]

[...]

      isym =  4     inv. 180 deg rotation - cart. axis [1,0,0]

[...]

      isym =  6     inv. 180 deg rotation - cryst. axis [1,1,0]

 cryst.   s( 6) = (     0         -1          0      )
                  (    -1          0          0      )
                  (     0          0          1      )

 cart.    s( 6) = (  0.5000000 -0.8660254  0.0000000 )
                  ( -0.8660254 -0.5000000  0.0000000 )
                  (  0.0000000  0.0000000  1.0000000 )

     point group C_3v (3m)
     there are  3 classes
     the character table:

       E     2C3   3s_v
A_1    1.00  1.00  1.00
A_2    1.00  1.00 -1.00
E      2.00 -1.00  0.00

     the symmetry operations in each class and the name of the first element:

     E        1
          identity
     2C3      2    3
          120 deg rotation - cryst. axis [0,0,1]
     3s_v     4    5    6
          inv. 180 deg rotation - cart. axis [1,0,0]

   Cartesian axes

     site n.     atom                  positions (alat units)
         1           B   tau(   1) = (  -0.0000000   0.0000000  -0.0175925  )
         2           N   tau(   2) = (  -0.0000000   0.5909506  -0.0176982  )
         3           N   tau(   3) = (   0.0000000  -0.0000000   1.5737018  )
         4           B   tau(   4) = (   0.5117782   0.2954753   1.5736816  )

   Crystallographic axes

     site n.     atom                  positions (cryst. coord.)
         1           B   tau(   1) = ( -0.0000000  0.0000000 -0.0028265  )
         2           N   tau(   2) = (  0.3333333  0.6666667 -0.0028435  )
         3           N   tau(   3) = (  0.0000000  0.0000000  0.2528366  )
         4           B   tau(   4) = (  0.6666667  0.3333333  0.2528333  )

     number of k points=    19  Marzari-Vanderbilt smearing, width (Ry)=  0.0100
                       cart. coord. in units 2pi/alat
        k(    1) = (   0.0000000   0.0000000   0.0000000), wk =   0.0138889
        k(    2) = (   0.0000000   0.0940105   0.0000000), wk =   0.0833333
        k(    3) = (   0.0000000   0.1880210   0.0000000), wk =   0.0833333
        k(    4) = (   0.0000000   0.2820315   0.0000000), wk =   0.0833333
        k(    5) = (   0.0000000   0.3760420   0.0000000), wk =   0.0833333
        k(    6) = (   0.0000000   0.4700525   0.0000000), wk =   0.0833333
        k(    7) = (  -0.0000000  -0.5640630  -0.0000000), wk =   0.0416667
        k(    8) = (   0.0814155   0.1410157   0.0000000), wk =   0.0833333
        k(    9) = (   0.0814155   0.2350262   0.0000000), wk =   0.1666667
        k(   10) = (   0.0814155   0.3290367   0.0000000), wk =   0.1666667
        k(   11) = (   0.0814155   0.4230472   0.0000000), wk =   0.1666667
        k(   12) = (   0.0814155   0.5170577   0.0000000), wk =   0.1666667
        k(   13) = (   0.1628310   0.2820315   0.0000000), wk =   0.0833333
        k(   14) = (   0.1628310   0.3760420   0.0000000), wk =   0.1666667
        k(   15) = (   0.1628310   0.4700525   0.0000000), wk =   0.1666667
        k(   16) = (   0.1628310   0.5640630   0.0000000), wk =   0.0833333
        k(   17) = (   0.2442464   0.4230472   0.0000000), wk =   0.0833333
        k(   18) = (   0.2442464   0.5170577   0.0000000), wk =   0.1666667
        k(   19) = (   0.3256619   0.5640630   0.0000000), wk =   0.0277778

                       cryst. coord.
        k(    1) = (   0.0000000   0.0000000   0.0000000), wk =   0.0138889
        k(    2) = (   0.0000000   0.0833333   0.0000000), wk =   0.0833333
        k(    3) = (   0.0000000   0.1666667   0.0000000), wk =   0.0833333
        k(    4) = (  -0.0000000   0.2500000   0.0000000), wk =   0.0833333
        k(    5) = (   0.0000000   0.3333333   0.0000000), wk =   0.0833333
        k(    6) = (   0.0000000   0.4166667  -0.0000000), wk =   0.0833333
        k(    7) = (   0.0000000  -0.5000000  -0.0000000), wk =   0.0416667
        k(    8) = (   0.0833333   0.0833333   0.0000000), wk =   0.0833333
        k(    9) = (   0.0833333   0.1666667   0.0000000), wk =   0.1666667
        k(   10) = (   0.0833333   0.2500000  -0.0000000), wk =   0.1666667
        k(   11) = (   0.0833333   0.3333333  -0.0000000), wk =   0.1666667
        k(   12) = (   0.0833333   0.4166667  -0.0000000), wk =   0.1666667
        k(   13) = (   0.1666667   0.1666667   0.0000000), wk =   0.0833333
        k(   14) = (   0.1666667   0.2500000   0.0000000), wk =   0.1666667
        k(   15) = (   0.1666667   0.3333333   0.0000000), wk =   0.1666667
        k(   16) = (   0.1666667   0.4166667  -0.0000000), wk =   0.0833333
        k(   17) = (   0.2500000   0.2500000   0.0000000), wk =   0.0833333
        k(   18) = (   0.2500000   0.3333333  -0.0000000), wk =   0.1666667
        k(   19) = (   0.3333333   0.3333333   0.0000000), wk =   0.0277778

     Initial potential from superposition of free atoms

     starting charge      15.9995, renormalised to      16.0000

     negative rho (up, down):  6.741E-06 0.000E+00
     Starting wfcs are   16 randomized atomic wfcs

     Self-consistent Calculation

[...]

     negative rho (up, down):  3.263E-08 0.000E+00

[...]

     total energy              =     -53.63361841 Ry
     estimated scf accuracy    <       0.00000001 Ry

     iteration # 16     ecut=    80.00 Ry     beta= 0.70
     Davidson diagonalization with overlap

     ethr =  8.88E-11,  avg # of iterations =  2.8

     End of self-consistent calculation

[...]

          k =-0.0000-0.5641-0.0000 (  6822 PWs)   bands (ev):

[...]

          k = 0.3257 0.5641 0.0000 (  6783 PWs)   bands (ev):

   -15.2204 -15.2009  -9.1351  -9.1169  -8.4150  -8.3963  -1.2584  -1.2365

     occupation numbers
     1.0000   1.0000   1.0000   1.0000   1.0000   1.0000   1.0000   1.0000

     the Fermi energy is    -0.5121 ev

!    total energy              =     -53.63361841 Ry
     estimated scf accuracy    <          4.1E-09 Ry
     smearing contrib. (-TS)   =       0.00000000 Ry
     internal energy E=F+TS    =     -53.63361841 Ry

     The total energy is F=E-TS. E is the sum of the following terms:
     one-electron contribution =    -263.11251702 Ry
     hartree contribution      =     136.43574234 Ry
     xc contribution           =     -17.31204058 Ry
     ewald contribution        =      90.35519685 Ry

     convergence has been achieved in  16 iterations

     Forces acting on atoms (cartesian axes, Ry/au):

     atom    1 type  2   force =    -0.00000000    0.00000000   -0.00018018
     atom    2 type  1   force =    -0.00000000    0.00000000   -0.00016799
     atom    3 type  1   force =     0.00000000   -0.00000000    0.00017223
     atom    4 type  2   force =     0.00000000   -0.00000000    0.00017594
     The non-local contrib.  to forces
     atom    1 type  2   force =     0.00000000    0.00000000    0.00007375
     atom    2 type  1   force =     0.00000000   -0.00000000    0.00006122
     atom    3 type  1   force =     0.00000000   -0.00000000    0.00052036
     atom    4 type  2   force =     0.00000000    0.00000000    0.00006122
     The ionic contribution  to forces
     atom    1 type  2   force =    -0.00000001    0.00000000   -7.55882106
     atom    2 type  1   force =     0.00000001   -0.00000000  -12.60294920
     atom    3 type  1   force =     0.00000001   -0.00000000   12.60200104
     atom    4 type  2   force =    -0.00000001    0.00000000    7.55976922
     The local contribution  to forces
     atom    1 type  2   force =    -0.00000000   -0.00000000    7.55857608
     atom    2 type  1   force =     0.00000003   -0.00000002   12.60270140
     atom    3 type  1   force =     0.00000000    0.00000000  -12.60231176
     atom    4 type  2   force =     0.00000000   -0.00000000   -7.55965059
     The core correction contribution to forces
     atom    1 type  2   force =    -0.00000000   -0.00000000   -0.00001111
     atom    2 type  1   force =    -0.00000000    0.00000000    0.00001223
     atom    3 type  1   force =     0.00000000   -0.00000000   -0.00002442
     atom    4 type  2   force =     0.00000000   -0.00000000    0.00000227
     The Hubbard contrib.    to forces
     atom    1 type  2   force =     0.00000000    0.00000000    0.00000000
     atom    2 type  1   force =     0.00000000    0.00000000    0.00000000
     atom    3 type  1   force =     0.00000000    0.00000000    0.00000000
     atom    4 type  2   force =     0.00000000    0.00000000    0.00000000
     The SCF correction term to forces
     atom    1 type  2   force =     0.00000000   -0.00000000    0.00000343
     atom    2 type  1   force =    -0.00000000    0.00000000    0.00000763
     atom    3 type  1   force =    -0.00000000    0.00000000   -0.00001174
     atom    4 type  2   force =    -0.00000000    0.00000000   -0.00000492

     Total force =     0.000348     Total SCF correction =     0.000015

     Computing stress (Cartesian axis) and pressure

          total   stress  (Ry/bohr**3)                   (kbar)     P=        0.60
   0.00000457   0.00000000   0.00000000            0.67        0.00        0.00
   0.00000000   0.00000457  -0.00000000            0.00        0.67       -0.00
   0.00000000   0.00000000   0.00000311            0.00        0.00        0.46

     kinetic stress (kbar)   6320.22      0.00      0.00
                                0.00   6320.22      0.00
                                0.00      0.00   6905.32

     local   stress (kbar) -72632.76      0.00      0.00
                                0.00 -72632.76     -0.00
                                0.00     -0.00  73520.52

     nonloc. stress (kbar)  -1040.03     -0.00      0.00
                               -0.00  -1040.03      0.00
                               -0.00      0.00  -1010.56

     hartree stress (kbar)  34599.46     -0.00      0.00
                               -0.00  34599.46      0.00
                                0.00      0.00 -33507.00

     exc-cor stress (kbar)   -628.73     -0.00     -0.00
                               -0.00   -628.73      0.00
                               -0.00      0.00   -675.59

     corecor stress (kbar)   -705.73      0.00      0.00
                                0.00   -705.73     -0.00
                                0.00     -0.00   -692.88

     ewald   stress (kbar)  34088.24     -0.00     -0.00
                               -0.00  34088.24      0.00
                               -0.00      0.00 -44539.35

     hubbard stress (kbar)      0.00      0.00      0.00
                                0.00      0.00      0.00
                                0.00      0.00      0.00

     DFT-D   stress (kbar)      0.00      0.00      0.00
                                0.00      0.00      0.00
                                0.00      0.00      0.00

     XDM     stress (kbar)      0.00      0.00      0.00
                                0.00      0.00      0.00
                                0.00      0.00      0.00

     dft-nl  stress (kbar)      0.00      0.00      0.00
                                0.00      0.00      0.00
                                0.00      0.00      0.00

     TS-vdW  stress (kbar)      0.00      0.00      0.00
                                0.00      0.00      0.00
                                0.00      0.00      0.00

     MDB     stress (kbar)      0.00      0.00      0.00
                                0.00      0.00      0.00
                                0.00      0.00      0.00

     3D-RISM stress (kbar)      0.00      0.00      0.00
                                0.00      0.00      0.00
                                0.00      0.00      0.00

     Writing all to output data dir ./graphene.save/

     General routines

     Parallel routines

   This run was terminated on:  12:19:10   8Apr2024

   JOB DONE.