     Program PWSCF v.6.8 starts on 15Apr2024 at 13: 2:25

     R & G space division:  proc/nbgrp/npool/nimage =      32

     Reading input from 1L-MoS2-vcrelax.in

     Current dimensions of program PWSCF are:
     Max number of different atomic species (ntypx) = 10
     Max number of k-points (npk) =  40000
     Max angular momentum in pseudopotentials (lmaxx) =  4

     IMPORTANT: XC functional enforced from input :
     Exchange-correlation= VDW-DF2-B86R
                           (   1   4  26   0   2   0   0)
     Any further DFT definition will be discarded
     Please, verify this is what you really want

     Using Slab Decomposition

     bravais-lattice index     =            4
     lattice parameter (alat)  =       5.9526  a.u.
     unit-cell volume          =    1055.4065 (a.u.)^3
     number of atoms/cell      =            3
     number of atomic types    =            2
     number of electrons       =        26.00
     number of Kohn-Sham states=           13
     kinetic-energy cutoff     =      70.0000  Ry
     charge density cutoff     =     280.0000  Ry
     scf convergence threshold =      1.0E-06
     mixing beta               =       0.7000
     number of iterations used =            8  plain     mixing
     energy convergence thresh.=      1.0E-04
     force convergence thresh. =      1.0E-03
     press convergence thresh. =      5.0E-01
     Exchange-correlation= VDW-DF2-B86R
                           (   1   4  26   0   2   0   0)
     nstep                     =           50

     celldm(1)=   5.952637  celldm(2)=   0.000000  celldm(3)=   5.777779
     celldm(4)=   0.000000  celldm(5)=   0.000000  celldm(6)=   0.000000

     crystal axes: (cart. coord. in units of alat)
               a(1) = (   1.000000   0.000000   0.000000 )
               a(2) = (  -0.500000   0.866025   0.000000 )
               a(3) = (   0.000000   0.000000   5.777779 )

     reciprocal axes: (cart. coord. in units 2 pi/alat)
               b(1) = (  1.000000  0.577350  0.000000 )
               b(2) = (  0.000000  1.154701  0.000000 )
               b(3) = (  0.000000  0.000000  0.173077 )

     PseudoPot. # 1 for S  read from file:
     /exports/commonscratch/sgrillo/MAURIZIA/MoS2/pseudos/S.upf
     MD5 check sum: b72b6a9ca752e39de1a6cc592280dae2
     Pseudo is Norm-conserving + core correction, Zval =  6.0
     Generated using ONCVPSP code by D. R. Hamann
     Using radial grid of 1148 points,  6 beta functions with:
                l(1) =   0
                l(2) =   0
                l(3) =   1
                l(4) =   1
                l(5) =   2
                l(6) =   2

     PseudoPot. # 2 for Mo read from file:
     /exports/commonscratch/sgrillo/MAURIZIA/MoS2/pseudos/Mo.upf
     MD5 check sum: 7ca7a9feba7bf08d88d14bc7fbf60c1e
     Pseudo is Norm-conserving + core correction, Zval = 14.0
     Generated using ONCVPSP code by D. R. Hamann
     Using radial grid of 1640 points,  6 beta functions with:
                l(1) =   0
                l(2) =   0
                l(3) =   1
                l(4) =   1
                l(5) =   2
                l(6) =   2

     atomic species   valence    mass     pseudopotential
        S              6.00    32.06500     S ( 1.00)
        Mo            14.00    95.94000     Mo( 1.00)

      6 Sym. Ops. (no inversion) found

                                    s                        frac. trans.

      isym =  1     identity

 cryst.   s( 1) = (     1          0          0      )
                  (     0          1          0      )
                  (     0          0          1      )

 cart.    s( 1) = (  1.0000000  0.0000000  0.0000000 )
                  (  0.0000000  1.0000000  0.0000000 )
                  (  0.0000000  0.0000000  1.0000000 )

      isym =  2     120 deg rotation - cryst. axis [0,0,1]

[...]

      isym =  4     inv. 180 deg rotation - cart. axis [1,0,0]

[...]

      isym =  5     inv. 180 deg rotation - cryst. axis [0,1,0]

[...]

     point group C_3v (3m)
     there are  3 classes
     the character table:

       E     2C3   3s_v
A_1    1.00  1.00  1.00
A_2    1.00  1.00 -1.00
E      2.00 -1.00  0.00

     the symmetry operations in each class and the name of the first element:

     E        1
          identity
     2C3      2    3
          120 deg rotation - cryst. axis [0,0,1]
     3s_v     4    5    6
          inv. 180 deg rotation - cart. axis [1,0,0]

   Cartesian axes

     site n.     atom                  positions (alat units)
         1           Mo  tau(   1) = (   0.5000000   0.2886751   0.4999348  )
         2           S   tau(   2) = (   0.0000000   0.5773503   0.0000000  )
         3           S   tau(   3) = (   0.0000000   0.5773503   0.9998985  )

   Crystallographic axes

     site n.     atom                  positions (cryst. coord.)
         1           Mo  tau(   1) = (  0.6666667  0.3333333  0.0865272  )
         2           S   tau(   2) = (  0.3333333  0.6666667  0.0000000  )
         3           S   tau(   3) = (  0.3333333  0.6666667  0.1730593  )

     number of k points=    12
                       cart. coord. in units 2pi/alat
        k(    1) = (   0.0000000   0.0000000   0.0000000), wk =   0.0246914
        k(    2) = (   0.0000000   0.1283001   0.0000000), wk =   0.1481481
        k(    3) = (   0.0000000   0.2566001   0.0000000), wk =   0.1481481
        k(    4) = (   0.0000000   0.3849002   0.0000000), wk =   0.1481481
        k(    5) = (   0.0000000   0.5132002   0.0000000), wk =   0.1481481
        k(    6) = (   0.1111111   0.1924501   0.0000000), wk =   0.1481481
        k(    7) = (   0.1111111   0.3207501   0.0000000), wk =   0.2962963
        k(    8) = (   0.1111111   0.4490502   0.0000000), wk =   0.2962963
        k(    9) = (   0.1111111   0.5773503   0.0000000), wk =   0.1481481
        k(   10) = (   0.2222222   0.3849002   0.0000000), wk =   0.1481481
        k(   11) = (   0.2222222   0.5132002   0.0000000), wk =   0.2962963
        k(   12) = (   0.3333333   0.5773503   0.0000000), wk =   0.0493827

                       cryst. coord.
        k(    1) = (   0.0000000   0.0000000   0.0000000), wk =   0.0246914
        k(    2) = (   0.0000000   0.1111111   0.0000000), wk =   0.1481481
        k(    3) = (   0.0000000   0.2222222   0.0000000), wk =   0.1481481
        k(    4) = (   0.0000000   0.3333333   0.0000000), wk =   0.1481481
        k(    5) = (   0.0000000   0.4444444   0.0000000), wk =   0.1481481
        k(    6) = (   0.1111111   0.1111111   0.0000000), wk =   0.1481481
        k(    7) = (   0.1111111   0.2222222   0.0000000), wk =   0.2962963
        k(    8) = (   0.1111111   0.3333333   0.0000000), wk =   0.2962963
        k(    9) = (   0.1111111   0.4444444   0.0000000), wk =   0.1481481
        k(   10) = (   0.2222222   0.2222222   0.0000000), wk =   0.1481481
        k(   11) = (   0.2222222   0.3333333   0.0000000), wk =   0.2962963
        k(   12) = (   0.3333333   0.3333333   0.0000000), wk =   0.0493827

     Initial potential from superposition of free atoms

     starting charge   25.99850, renormalised to   26.00000

     negative rho (up, down):  3.424E-05 0.000E+00

     %%%%%%%%%%%%%%%%%%%%%%%%%%%%%%%%%%%%%%%%%%%%%%%%%%%%%%%%%%%%%%%%%%%%%%%%
     %                                                                      %
     % You are using vdW-DF, which was implemented by the Thonhauser group. %
     % Please cite the following two papers that made this development      %
     % possible and the two reviews that describe the various versions:     %
     %                                                                      %
     %   T. Thonhauser et al., PRL 115, 136402 (2015).                      %
     %   T. Thonhauser et al., PRB 76, 125112 (2007).                       %
     %   K. Berland et al., Rep. Prog. Phys. 78, 066501 (2015).             %
     %   D.C. Langreth et al., J. Phys.: Condens. Matter 21, 084203 (2009). %
     %                                                                      %
     %                                                                      %
     % If you are calculating the stress with vdW-DF, please also cite:     %
     %                                                                      %
     %   R. Sabatini et al., J. Phys.: Condens. Matter 24, 424209 (2012).   %
     %                                                                      %
     %%%%%%%%%%%%%%%%%%%%%%%%%%%%%%%%%%%%%%%%%%%%%%%%%%%%%%%%%%%%%%%%%%%%%%%%

     Carrying out vdW-DF run using the following parameters:
     Nqs    =  20  Npoints =  1024  r_max =  100.000
     q_mesh =  0.00001000  0.04494208  0.09755937  0.15916263
               0.23128650  0.31572767  0.41458969  0.53033537
               0.66584808  0.82450364  1.01025438  1.22772762
               1.48234092  1.78043706  2.12944203  2.53805004
               3.01644009  3.57652955  4.23227104  5.00000000

     Non-local corr. energy    =       0.30313329 Ry

     Starting wfcs are   18 randomized atomic wfcs

     Self-consistent Calculation

     iteration #  1     ecut=    70.00 Ry     beta= 0.70
     Davidson diagonalization with overlap

     ethr =  1.00E-02,  avg # of iterations =  2.0

[...]

     total energy              =    -184.59381486 Ry
     estimated scf accuracy    <       0.44886754 Ry

[...]

     End of self-consistent calculation

          k = 0.0000 0.0000 0.0000 ( 10393 PWs)   bands (ev):

   -61.2944 -35.4719 -35.2196 -35.2196 -14.6404 -13.3580  -6.1585  -3.0380
    -3.0380  -2.3983  -1.9130  -1.9130  -0.6460

     occupation numbers
     1.0000   1.0000   1.0000   1.0000   1.0000   1.0000   1.0000   1.0000
     1.0000   1.0000   1.0000   1.0000   1.0000

[...]

     highest occupied level (ev):    -0.5129

!    total energy              =    -184.86910268 Ry
     estimated scf accuracy    <       0.00000084 Ry

     The total energy is the sum of the following terms:
     one-electron contribution =    -984.71129737 Ry
     hartree contribution      =     493.19746700 Ry
     xc contribution           =     -33.32766132 Ry
     ewald contribution        =     339.97238900 Ry

     convergence has been achieved in  11 iterations

[...]

     Forces acting on atoms (cartesian axes, Ry/au):

     atom    1 type  2   force =     0.00000000    0.00000000    0.00020665
     atom    2 type  1   force =     0.00000000    0.00000000   -0.00102241
     atom    3 type  1   force =     0.00000000    0.00000000    0.00081575
     The non-local contrib.  to forces
     atom    1 type  2   force =     0.00000000    0.00000000   -0.00003986
     atom    2 type  1   force =     0.00000000    0.00000000    0.24354540
     atom    3 type  1   force =     0.00000000    0.00000000   -0.24354769
     The ionic contribution  to forces
     atom    1 type  2   force =     0.00000003   -0.00000002   -0.00012711
     atom    2 type  1   force =    -0.00000002    0.00000001  -35.70687856
     atom    3 type  1   force =    -0.00000002    0.00000001   35.70700567
     The local contribution  to forces
     atom    1 type  2   force =     0.00000085    0.00000054   -0.00284757
[...]

CELL_PARAMETERS (alat=  5.95263722)
   1.000822449   0.000000000   0.000000000
  -0.500411224   0.866737665   0.000000000
   0.000000000   0.000000000   5.777778614

ATOMIC_POSITIONS (angstrom)
Mo            1.5762953300        0.9100745327        1.5749039371
S             0.0000000000        1.8201490654       -0.0005410339
S             0.0000000000        1.8201490654        3.1501119988

     Writing output data file ./tmp/1L-MoS2.save/
     NEW-OLD atomic charge density approx. for the potential

[...]

     extrapolated charge   26.04271, renormalised to   26.00000

[...]

     Energy error            =      5.3E-05 Ry
     Gradient error          =      1.4E-04 Ry/Bohr
     Cell gradient error     =      3.8E+00 kbar

[...]

     enthalpy           old  =    -184.8691026804 Ry
     enthalpy           new  =    -184.8691560930 Ry

     CASE: enthalpy          _new < enthalpy          _old

[...]

     Energy error            =      2.2E-05 Ry
     Gradient error          =      1.4E-03 Ry/Bohr
     Cell gradient error     =      1.1E-01 kbar

     number of scf cycles    =   5
     number of bfgs steps    =   4

     enthalpy           old  =    -184.8692438041 Ry
     enthalpy           new  =    -184.8692660755 Ry

     CASE: enthalpy          _new < enthalpy          _old

     new trust radius        =       0.0020112029 bohr
ibrav =      4
 celldm(1) =      5.98195410
 celldm(3) =      5.74946237
Input lattice vectors:
     1.00492502    -0.00000000     0.00000000
    -0.50246251     0.87029060     0.00000000
     0.00000000     0.00000000     5.77777861
New lattice vectors in INITIAL alat:
     1.00492502     0.00000000     0.00000000
    -0.50246251     0.87029060     0.00000000
     0.00000000     0.00000000     5.77777861
New lattice vectors in NEW alat (for information only):
     1.00000000     0.00000000     0.00000000
    -0.50000000     0.86602540     0.00000000
     0.00000000     0.00000000     5.74946237
Discrepancy in bohr =     0.000000    0.000000    0.000000
     new conv_thr            =       0.0000000100 Ry

     new unit-cell volume =   1065.82793 a.u.^3 (   157.93940 Ang^3 )
     density =      1.68294 g/cm^3

[...]

ATOMIC_POSITIONS (angstrom)
Mo            1.5827568869        0.9138051143        1.5748378074
S            -0.0000000000        1.8276102286        0.0028275528
S            -0.0000000000        1.8276102286        3.1468095418

     Writing output data file ./tmp/1L-MoS2.save/
     NEW-OLD atomic charge density approx. for the potential

[...]

     extrapolated charge   26.01601, renormalised to   26.00000

[...]

     Energy error            =      3.5E-06 Ry
     Gradient error          =      9.3E-04 Ry/Bohr
     Cell gradient error     =      2.8E-01 kbar
ibrav =      4
 celldm(1) =      5.98195410
 celldm(3) =      5.74946237
Input lattice vectors:
     1.00492502     0.00000000     0.00000000
    -0.50246251     0.87029060     0.00000000
     0.00000000     0.00000000     5.77777861
New lattice vectors in INITIAL alat:
     1.00492502     0.00000000     0.00000000
    -0.50246251     0.87029060     0.00000000
     0.00000000     0.00000000     5.77777861
New lattice vectors in NEW alat (for information only):
     1.00000000     0.00000000     0.00000000
    -0.50000000     0.86602540     0.00000000
     0.00000000     0.00000000     5.74946237
Discrepancy in bohr =     0.000000    0.000000    0.000000

     bfgs converged in   6 scf cycles and   5 bfgs steps
     (criteria: energy <  1.0E-04 Ry, force <  1.0E-03Ry/Bohr, cell <  5.0E-01kbar)

     End of BFGS Geometry Optimization

     Final enthalpy           =    -184.8692695892 Ry

     File ./tmp/1L-MoS2.bfgs deleted, as requested
Begin final coordinates
     new unit-cell volume =   1065.82793 a.u.^3 (   157.93940 Ang^3 )
     density =      1.68294 g/cm^3

CELL_PARAMETERS (alat=  5.95263722)
   1.004925025   0.000000000   0.000000000
  -0.502462512   0.870290600   0.000000000
   0.000000000   0.000000000   5.777778614

ATOMIC_POSITIONS (angstrom)
Mo            1.5827568869        0.9138051143        1.5748378074
S            -0.0000000000        1.8276102286        0.0028275528
S            -0.0000000000        1.8276102286        3.1468095418
End final coordinates

     Writing output data file ./tmp/1L-MoS2.save/

     Final scf calculation at the relaxed structure.
     The G-vectors are recalculated for the final unit cell
     Results may differ from those at the preceding step.

     Using Slab Decomposition

     bravais-lattice index     =            4
     lattice parameter (alat)  =       5.9526  a.u.
     unit-cell volume          =    1065.8279 (a.u.)^3
     number of atoms/cell      =            3
     number of atomic types    =            2
     number of electrons       =        26.00
     number of Kohn-Sham states=           13
     kinetic-energy cutoff     =      70.0000  Ry
     charge density cutoff     =     280.0000  Ry
     scf convergence threshold =      1.0E-08
     mixing beta               =       0.7000
     number of iterations used =            8  plain     mixing
     press convergence thresh. =      5.0E-01
     Exchange-correlation= VDW-DF2-B86R
                           (   1   4  26   0   2   0   0)

     celldm(1)=   5.952637  celldm(2)=   0.000000  celldm(3)=   5.777779
     celldm(4)=   0.000000  celldm(5)=   0.000000  celldm(6)=   0.000000

     crystal axes: (cart. coord. in units of alat)
               a(1) = (   1.004925   0.000000   0.000000 )
               a(2) = (  -0.502463   0.870291   0.000000 )
               a(3) = (   0.000000   0.000000   5.777779 )

     reciprocal axes: (cart. coord. in units 2 pi/alat)
               b(1) = (  0.995099  0.574521  0.000000 )
               b(2) = (  0.000000  1.149041  0.000000 )
               b(3) = (  0.000000  0.000000  0.173077 )

     PseudoPot. # 1 for S  read from file:
     /exports/commonscratch/sgrillo/MAURIZIA/MoS2/pseudos/S.upf
     MD5 check sum: b72b6a9ca752e39de1a6cc592280dae2
     Pseudo is Norm-conserving + core correction, Zval =  6.0
     Generated using ONCVPSP code by D. R. Hamann
     Using radial grid of 1148 points,  6 beta functions with:
                l(1) =   0
                l(2) =   0
                l(3) =   1
                l(4) =   1
                l(5) =   2
                l(6) =   2

     PseudoPot. # 2 for Mo read from file:
     /exports/commonscratch/sgrillo/MAURIZIA/MoS2/pseudos/Mo.upf
     MD5 check sum: 7ca7a9feba7bf08d88d14bc7fbf60c1e
     Pseudo is Norm-conserving + core correction, Zval = 14.0
     Generated using ONCVPSP code by D. R. Hamann
     Using radial grid of 1640 points,  6 beta functions with:
                l(1) =   0
                l(2) =   0
                l(3) =   1
                l(4) =   1
                l(5) =   2
                l(6) =   2

     atomic species   valence    mass     pseudopotential
        S              6.00    32.06500     S ( 1.00)
        Mo            14.00    95.94000     Mo( 1.00)

      6 Sym. Ops. (no inversion) found

                                    s                        frac. trans.

      isym =  1     identity

[...]

      isym =  3     120 deg rotation - cryst. axis [0,0,-1]

[...]

      isym =  4     inv. 180 deg rotation - cart. axis [1,0,0]

[...]

      isym =  6     inv. 180 deg rotation - cryst. axis [1,1,0]

 cryst.   s( 6) = (     0         -1          0      )
                  (    -1          0          0      )
                  (     0          0          1      )

 cart.    s( 6) = (  0.5000000 -0.8660254  0.0000000 )
                  ( -0.8660254 -0.5000000  0.0000000 )
                  (  0.0000000  0.0000000  1.0000000 )

     point group C_3v (3m)
     there are  3 classes
     the character table:

       E     2C3   3s_v
A_1    1.00  1.00  1.00
A_2    1.00  1.00 -1.00
E      2.00 -1.00  0.00

     the symmetry operations in each class and the name of the first element:

     E        1
          identity
     2C3      2    3
          120 deg rotation - cryst. axis [0,0,1]
     3s_v     4    5    6
          inv. 180 deg rotation - cart. axis [1,0,0]

   Cartesian axes

     site n.     atom                  positions (alat units)
         1           Mo  tau(   1) = (   0.5024625   0.2900969   0.4999485  )
         2           S   tau(   2) = (  -0.0000000   0.5801937   0.0008976  )
         3           S   tau(   3) = (  -0.0000000   0.5801937   0.9989872  )

   Crystallographic axes

     site n.     atom                  positions (cryst. coord.)
         1           Mo  tau(   1) = (  0.6666667  0.3333333  0.0865295  )
         2           S   tau(   2) = (  0.3333333  0.6666667  0.0001554  )
         3           S   tau(   3) = (  0.3333333  0.6666667  0.1729016  )

     number of k points=    12
                       cart. coord. in units 2pi/alat
        k(    1) = (   0.0000000   0.0000000   0.0000000), wk =   0.0246914
        k(    2) = (   0.0000000   0.1276713   0.0000000), wk =   0.1481481
        k(    3) = (   0.0000000   0.2553426   0.0000000), wk =   0.1481481
        k(    4) = (   0.0000000   0.3830138   0.0000000), wk =   0.1481481
        k(    5) = (   0.0000000   0.5106851   0.0000000), wk =   0.1481481
        k(    6) = (   0.1105666   0.1915069   0.0000000), wk =   0.1481481
        k(    7) = (   0.1105666   0.3191782   0.0000000), wk =   0.2962963
        k(    8) = (   0.1105666   0.4468495   0.0000000), wk =   0.2962963
        k(    9) = (   0.1105666   0.5745207   0.0000000), wk =   0.1481481
        k(   10) = (   0.2211331   0.3830138   0.0000000), wk =   0.1481481
        k(   11) = (   0.2211331   0.5106851   0.0000000), wk =   0.2962963
        k(   12) = (   0.3316997   0.5745207   0.0000000), wk =   0.0493827

                       cryst. coord.
        k(    1) = (   0.0000000   0.0000000   0.0000000), wk =   0.0246914
        k(    2) = (   0.0000000   0.1111111   0.0000000), wk =   0.1481481
        k(    3) = (   0.0000000   0.2222222   0.0000000), wk =   0.1481481
        k(    4) = (   0.0000000   0.3333333   0.0000000), wk =   0.1481481
        k(    5) = (   0.0000000   0.4444444   0.0000000), wk =   0.1481481
        k(    6) = (   0.1111111   0.1111111   0.0000000), wk =   0.1481481
        k(    7) = (   0.1111111   0.2222222   0.0000000), wk =   0.2962963
        k(    8) = (   0.1111111   0.3333333   0.0000000), wk =   0.2962963
        k(    9) = (   0.1111111   0.4444444   0.0000000), wk =   0.1481481
        k(   10) = (   0.2222222   0.2222222   0.0000000), wk =   0.1481481
        k(   11) = (   0.2222222   0.3333333   0.0000000), wk =   0.2962963
        k(   12) = (   0.3333333   0.3333333   0.0000000), wk =   0.0493827

     Initial potential from superposition of free atoms

     starting charge   25.99850, renormalised to   26.00000

[...]

     Starting wfcs are   18 randomized atomic wfcs

     Self-consistent Calculation

[...]

     negative rho (up, down):  2.312E-06 0.000E+00

[...]

     total energy              =    -184.86934411 Ry
     estimated scf accuracy    <       0.00000002 Ry

     iteration # 14     ecut=    70.00 Ry     beta= 0.70
     Davidson diagonalization with overlap

     ethr =  5.92E-11,  avg # of iterations =  2.2

[...]

     End of self-consistent calculation

[...]

          k = 0.3317 0.5745 0.0000 ( 10608 PWs)   bands (ev):

[...]

     occupation numbers
     1.0000   1.0000   1.0000   1.0000   1.0000   1.0000   1.0000   1.0000
     1.0000   1.0000   1.0000   1.0000   1.0000

     highest occupied level (ev):    -0.5816

!    total energy              =    -184.86934411 Ry
     estimated scf accuracy    <          4.8E-09 Ry

     The total energy is the sum of the following terms:
     one-electron contribution =    -976.72115509 Ry
     hartree contribution      =     489.14694224 Ry
     xc contribution           =     -33.30876251 Ry
     ewald contribution        =     336.01363125 Ry

     convergence has been achieved in  14 iterations

[...]

     Forces acting on atoms (cartesian axes, Ry/au):

     atom    1 type  2   force =     0.00000000    0.00000000   -0.00002456
     atom    2 type  1   force =     0.00000000    0.00000000    0.00093318
     atom    3 type  1   force =     0.00000000    0.00000000   -0.00090862
     The non-local contrib.  to forces
     atom    1 type  2   force =     0.00000000    0.00000000    0.00002895
     atom    2 type  1   force =     0.00000000    0.00000000    0.24694341
     atom    3 type  1   force =     0.00000000    0.00000000   -0.24692860
     The ionic contribution  to forces
     atom    1 type  2   force =     0.00000003   -0.00000002    0.00005638
     atom    2 type  1   force =    -0.00000002    0.00000001  -35.32611385
     atom    3 type  1   force =    -0.00000002    0.00000001   35.32605747
     The local contribution  to forces
     atom    1 type  2   force =     0.00000086    0.00000054   -0.00031571
     atom    2 type  1   force =     0.00000000    0.00000005   35.08569735
     atom    3 type  1   force =     0.00000000    0.00000005  -35.08572240
     The core correction contribution to forces
     atom    1 type  2   force =    -0.00000002   -0.00000001   -0.00000129
     atom    2 type  1   force =     0.00000000   -0.00000001   -0.00553433
     atom    3 type  1   force =     0.00000000   -0.00000001    0.00553316
     The Hubbard contrib.    to forces
     atom    1 type  2   force =     0.00000000    0.00000000    0.00000000
     atom    2 type  1   force =     0.00000000    0.00000000    0.00000000
     atom    3 type  1   force =     0.00000000    0.00000000    0.00000000
     The SCF correction term to forces
     atom    1 type  2   force =     0.00000000    0.00000000    0.00020399
     atom    2 type  1   force =    -0.00000000    0.00000000   -0.00006252
     atom    3 type  1   force =    -0.00000000    0.00000000    0.00014863

     Total force =     0.001303     Total SCF correction =     0.000260
     SCF correction compared to forces is large: reduce conv_thr to get better values

     Computing stress (Cartesian axis) and pressure

     Non-local corr. energy    =       0.30267777 Ry

          total   stress  (Ry/bohr**3)                   (kbar)     P=       -0.68
  -0.00000097   0.00000000   0.00000000           -0.14        0.00        0.00
   0.00000000  -0.00000097   0.00000000            0.00       -0.14        0.00
   0.00000000   0.00000000  -0.00001187            0.00        0.00       -1.75

     kinetic stress (kbar)   5503.29      0.00      0.00
                                0.00   5503.29     -0.00
                                0.00      0.00   5531.94

     local   stress (kbar)-134460.08      0.00      0.00
                                0.00-134460.08     -0.00
                                0.00     -0.00 129344.05

     nonloc. stress (kbar)   4354.89      0.00      0.00
                                0.00   4354.89      0.00
                                0.00      0.00   4366.28

     hartree stress (kbar)  65231.38      0.00      0.00
                                0.00  65231.38     -0.00
                                0.00     -0.00 -62950.92

     exc-cor stress (kbar)    -99.14      0.00     -0.00
                                0.00    -99.14      0.00
                               -0.00      0.00   -100.23

     corecor stress (kbar)  -1224.05     -0.00     -0.00
                               -0.00  -1224.05     -0.00
                               -0.00     -0.00  -1225.53

     ewald   stress (kbar)  60681.64     -0.00     -0.00
                               -0.00  60681.64      0.00
                               -0.00      0.00 -74986.83

     hubbard stress (kbar)      0.00      0.00      0.00
                                0.00      0.00      0.00
                                0.00      0.00      0.00

     DFT-D   stress (kbar)      0.00      0.00      0.00
                                0.00      0.00      0.00
                                0.00      0.00      0.00

     XDM     stress (kbar)      0.00      0.00      0.00
                                0.00      0.00      0.00
                                0.00      0.00      0.00

     dft-nl  stress (kbar)     11.93      0.00      0.00
                                0.00     11.93     -0.00
                                0.00     -0.00     19.49

     TS-vdW  stress (kbar)      0.00      0.00      0.00
                                0.00      0.00      0.00
                                0.00      0.00      0.00

[...]

                                0.00      0.00      0.00

     Writing output data file ./tmp/1L-MoS2.save/

     General routines

     Parallel routines

   This run was terminated on:  13: 3:24  15Apr2024

   JOB DONE.