     Program PWSCF v.6.8 starts on 15Apr2024 at 13: 2: 5

     R & G space division:  proc/nbgrp/npool/nimage =      32

     Reading input from bulk-MoS2-vcrelax.in

     Current dimensions of program PWSCF are:
     Max number of different atomic species (ntypx) = 10
     Max number of k-points (npk) =  40000
     Max angular momentum in pseudopotentials (lmaxx) =  4

     IMPORTANT: XC functional enforced from input :
     Exchange-correlation= VDW-DF2-B86R
                           (   1   4  26   0   2   0   0)
     Any further DFT definition will be discarded
     Please, verify this is what you really want

     Using Slab Decomposition

     bravais-lattice index     =            4
     lattice parameter (alat)  =       5.9526  a.u.
     unit-cell volume          =     851.9273 (a.u.)^3
     number of atoms/cell      =            6
     number of atomic types    =            2
     number of electrons       =        52.00
     number of Kohn-Sham states=           26
     kinetic-energy cutoff     =      70.0000  Ry
     charge density cutoff     =     280.0000  Ry
     scf convergence threshold =      1.0E-06
     mixing beta               =       0.7000
     number of iterations used =            8  plain     mixing
     energy convergence thresh.=      1.0E-04
     force convergence thresh. =      1.0E-03
     press convergence thresh. =      5.0E-01
     Exchange-correlation= VDW-DF2-B86R
                           (   1   4  26   0   2   0   0)
     nstep                     =           50

     celldm(1)=   5.952637  celldm(2)=   0.000000  celldm(3)=   4.663840
     celldm(4)=   0.000000  celldm(5)=   0.000000  celldm(6)=   0.000000

     crystal axes: (cart. coord. in units of alat)
               a(1) = (   1.000000   0.000000   0.000000 )
               a(2) = (  -0.500000   0.866025   0.000000 )
               a(3) = (   0.000000   0.000000   4.663840 )

     reciprocal axes: (cart. coord. in units 2 pi/alat)
               b(1) = (  1.000000  0.577350  0.000000 )
               b(2) = (  0.000000  1.154701  0.000000 )
               b(3) = (  0.000000  0.000000  0.214416 )

     PseudoPot. # 1 for S  read from file:
     /exports/commonscratch/sgrillo/MAURIZIA/MoS2/pseudos/S.upf
     MD5 check sum: b72b6a9ca752e39de1a6cc592280dae2
     Pseudo is Norm-conserving + core correction, Zval =  6.0
     Generated using ONCVPSP code by D. R. Hamann
     Using radial grid of 1148 points,  6 beta functions with:
                l(1) =   0
                l(2) =   0
                l(3) =   1
                l(4) =   1
                l(5) =   2
                l(6) =   2

     PseudoPot. # 2 for Mo read from file:
     /exports/commonscratch/sgrillo/MAURIZIA/MoS2/pseudos/Mo.upf
     MD5 check sum: 7ca7a9feba7bf08d88d14bc7fbf60c1e
     Pseudo is Norm-conserving + core correction, Zval = 14.0
     Generated using ONCVPSP code by D. R. Hamann
     Using radial grid of 1640 points,  6 beta functions with:
                l(1) =   0
                l(2) =   0
                l(3) =   1
                l(4) =   1
                l(5) =   2
                l(6) =   2

     atomic species   valence    mass     pseudopotential
        S              6.00    32.06500     S ( 1.00)
        Mo            14.00    95.94000     Mo( 1.00)

      6 Sym. Ops. (no inversion) found

                                    s                        frac. trans.

      isym =  1     identity

 cryst.   s( 1) = (     1          0          0      )
                  (     0          1          0      )
                  (     0          0          1      )

 cart.    s( 1) = (  1.0000000  0.0000000  0.0000000 )
                  (  0.0000000  1.0000000  0.0000000 )
                  (  0.0000000  0.0000000  1.0000000 )

      isym =  2     120 deg rotation - cryst. axis [0,0,1]

[...]

      isym =  4     inv. 180 deg rotation - cart. axis [1,0,0]

[...]

      isym =  5     inv. 180 deg rotation - cryst. axis [0,1,0]

[...]

     point group C_3v (3m)
     there are  3 classes
     the character table:

       E     2C3   3s_v
A_1    1.00  1.00  1.00
A_2    1.00  1.00 -1.00
E      2.00 -1.00  0.00

     the symmetry operations in each class and the name of the first element:

     E        1
          identity
     2C3      2    3
          120 deg rotation - cryst. axis [0,0,1]
     3s_v     4    5    6
          inv. 180 deg rotation - cart. axis [1,0,0]

   Cartesian axes

     site n.     atom                  positions (alat units)
         1           Mo  tau(   1) = (   0.5000000   0.2886751   0.4999348  )
         2           S   tau(   2) = (   0.0000000   0.5773503   0.0000000  )
         3           S   tau(   3) = (   0.0000000   0.5773503   0.9998985  )
         4           Mo  tau(   4) = (   0.0000000   0.5773503   2.8318839  )
         5           S   tau(   5) = (   0.5000000   0.2886751   2.3319201  )
         6           S   tau(   6) = (   0.5000000   0.2886751   3.3318187  )

   Crystallographic axes

     site n.     atom                  positions (cryst. coord.)
         1           Mo  tau(   1) = (  0.6666667  0.3333333  0.1071938  )
         2           S   tau(   2) = (  0.3333333  0.6666667  0.0000000  )
         3           S   tau(   3) = (  0.3333333  0.6666667  0.2143938  )
         4           Mo  tau(   4) = (  0.3333333  0.6666667  0.6072000  )
         5           S   tau(   5) = (  0.6666667  0.3333333  0.5000000  )
         6           S   tau(   6) = (  0.6666667  0.3333333  0.7143938  )

     number of k points=    62
                       cart. coord. in units 2pi/alat
        k(    1) = (   0.0000000   0.0000000   0.0000000), wk =   0.0041152
        k(    2) = (   0.0000000   0.0000000   0.0357359), wk =   0.0082305
        k(    3) = (   0.0000000   0.0000000   0.0714719), wk =   0.0082305
        k(    4) = (   0.0000000   0.0000000  -0.1072078), wk =   0.0041152
        k(    5) = (   0.0000000   0.1283001   0.0000000), wk =   0.0246914
        k(    6) = (   0.0000000   0.1283001   0.0357359), wk =   0.0246914
        k(    7) = (   0.0000000   0.1283001   0.0714719), wk =   0.0246914
        k(    8) = (   0.0000000   0.1283001  -0.1072078), wk =   0.0246914
        k(    9) = (   0.0000000   0.2566001   0.0000000), wk =   0.0246914
        k(   10) = (   0.0000000   0.2566001   0.0357359), wk =   0.0246914
        k(   11) = (   0.0000000   0.2566001   0.0714719), wk =   0.0246914
        k(   12) = (   0.0000000   0.2566001  -0.1072078), wk =   0.0246914
        k(   13) = (   0.0000000   0.3849002   0.0000000), wk =   0.0246914
        k(   14) = (   0.0000000   0.3849002   0.0357359), wk =   0.0246914
        k(   15) = (   0.0000000   0.3849002   0.0714719), wk =   0.0246914
        k(   16) = (   0.0000000   0.3849002  -0.1072078), wk =   0.0246914
        k(   17) = (   0.0000000   0.5132002   0.0000000), wk =   0.0246914
        k(   18) = (   0.0000000   0.5132002   0.0357359), wk =   0.0246914
        k(   19) = (   0.0000000   0.5132002   0.0714719), wk =   0.0246914
        k(   20) = (   0.0000000   0.5132002  -0.1072078), wk =   0.0246914
        k(   21) = (   0.1111111   0.1924501   0.0000000), wk =   0.0246914
        k(   22) = (   0.1111111   0.1924501   0.0357359), wk =   0.0493827
        k(   23) = (   0.1111111   0.1924501   0.0714719), wk =   0.0493827
        k(   24) = (   0.1111111   0.1924501  -0.1072078), wk =   0.0246914
        k(   25) = (   0.1111111   0.3207501   0.0000000), wk =   0.0493827
        k(   26) = (   0.1111111   0.3207501   0.0357359), wk =   0.0493827
        k(   27) = (   0.1111111   0.3207501   0.0714719), wk =   0.0493827
        k(   28) = (   0.1111111   0.3207501  -0.1072078), wk =   0.0493827
        k(   29) = (   0.1111111   0.4490502   0.0000000), wk =   0.0493827
        k(   30) = (   0.1111111   0.4490502   0.0357359), wk =   0.0493827
        k(   31) = (   0.1111111   0.4490502   0.0714719), wk =   0.0493827
        k(   32) = (   0.1111111   0.4490502  -0.1072078), wk =   0.0493827
        k(   33) = (   0.1111111   0.5773503   0.0000000), wk =   0.0246914
        k(   34) = (   0.1111111   0.5773503   0.0357359), wk =   0.0493827
        k(   35) = (   0.1111111   0.5773503   0.0714719), wk =   0.0493827
        k(   36) = (   0.1111111   0.5773503  -0.1072078), wk =   0.0246914
        k(   37) = (   0.2222222   0.3849002   0.0000000), wk =   0.0246914
        k(   38) = (   0.2222222   0.3849002   0.0357359), wk =   0.0493827
        k(   39) = (   0.2222222   0.3849002   0.0714719), wk =   0.0493827
        k(   40) = (   0.2222222   0.3849002  -0.1072078), wk =   0.0246914
        k(   41) = (   0.2222222   0.5132002   0.0000000), wk =   0.0493827
        k(   42) = (   0.2222222   0.5132002   0.0357359), wk =   0.0493827
        k(   43) = (   0.2222222   0.5132002   0.0714719), wk =   0.0493827
        k(   44) = (   0.2222222   0.5132002  -0.1072078), wk =   0.0493827
        k(   45) = (   0.3333333   0.5773503   0.0000000), wk =   0.0082305
        k(   46) = (   0.3333333   0.5773503   0.0357359), wk =   0.0164609
        k(   47) = (   0.3333333   0.5773503   0.0714719), wk =   0.0164609
        k(   48) = (   0.3333333   0.5773503  -0.1072078), wk =   0.0082305
        k(   49) = (   0.0000000  -0.1283001   0.0357359), wk =   0.0246914
        k(   50) = (   0.0000000  -0.1283001   0.0714719), wk =   0.0246914
        k(   51) = (   0.0000000  -0.2566001   0.0357359), wk =   0.0246914
        k(   52) = (   0.0000000  -0.2566001   0.0714719), wk =   0.0246914
        k(   53) = (   0.0000000  -0.3849002   0.0357359), wk =   0.0246914
        k(   54) = (   0.0000000  -0.3849002   0.0714719), wk =   0.0246914
        k(   55) = (   0.0000000  -0.5132002   0.0357359), wk =   0.0246914
        k(   56) = (   0.0000000  -0.5132002   0.0714719), wk =   0.0246914
        k(   57) = (  -0.1111111  -0.3207501   0.0357359), wk =   0.0493827
        k(   58) = (  -0.1111111  -0.3207501   0.0714719), wk =   0.0493827
        k(   59) = (  -0.1111111  -0.4490502   0.0357359), wk =   0.0493827
        k(   60) = (  -0.1111111  -0.4490502   0.0714719), wk =   0.0493827
        k(   61) = (  -0.2222222  -0.5132002   0.0357359), wk =   0.0493827
        k(   62) = (  -0.2222222  -0.5132002   0.0714719), wk =   0.0493827

                       cryst. coord.
        k(    1) = (   0.0000000   0.0000000   0.0000000), wk =   0.0041152
        k(    2) = (   0.0000000   0.0000000   0.1666667), wk =   0.0082305
        k(    3) = (   0.0000000   0.0000000   0.3333333), wk =   0.0082305
        k(    4) = (   0.0000000   0.0000000  -0.5000000), wk =   0.0041152
        k(    5) = (   0.0000000   0.1111111   0.0000000), wk =   0.0246914
        k(    6) = (   0.0000000   0.1111111   0.1666667), wk =   0.0246914
        k(    7) = (   0.0000000   0.1111111   0.3333333), wk =   0.0246914
        k(    8) = (   0.0000000   0.1111111  -0.5000000), wk =   0.0246914
        k(    9) = (   0.0000000   0.2222222   0.0000000), wk =   0.0246914
        k(   10) = (   0.0000000   0.2222222   0.1666667), wk =   0.0246914
        k(   11) = (   0.0000000   0.2222222   0.3333333), wk =   0.0246914
[...]
        k(    8) = (   0.0000000   0.1275276  -0.1273335), wk =   0.0246914
        k(    9) = (   0.0000000   0.2550552   0.0000000), wk =   0.0246914
        k(   10) = (   0.0000000   0.2550552   0.0424445), wk =   0.0246914
        k(   11) = (   0.0000000   0.2550552   0.0848890), wk =   0.0246914
        k(   12) = (   0.0000000   0.2550552  -0.1273335), wk =   0.0246914
        k(   13) = (   0.0000000   0.3825828   0.0000000), wk =   0.0246914
        k(   14) = (   0.0000000   0.3825828   0.0424445), wk =   0.0246914
        k(   15) = (   0.0000000   0.3825828   0.0848890), wk =   0.0246914
        k(   16) = (   0.0000000   0.3825828  -0.1273335), wk =   0.0246914
        k(   17) = (   0.0000000   0.5101103   0.0000000), wk =   0.0246914
        k(   18) = (   0.0000000   0.5101103   0.0424445), wk =   0.0246914
        k(   19) = (   0.0000000   0.5101103   0.0848890), wk =   0.0246914
        k(   20) = (   0.0000000   0.5101103  -0.1273335), wk =   0.0246914
        k(   21) = (   0.1104421   0.1912914   0.0000000), wk =   0.0246914
        k(   22) = (   0.1104421   0.1912914   0.0424445), wk =   0.0493827
        k(   23) = (   0.1104421   0.1912914   0.0848890), wk =   0.0493827
        k(   24) = (   0.1104421   0.1912914  -0.1273335), wk =   0.0246914
        k(   25) = (   0.1104421   0.3188190   0.0000000), wk =   0.0493827
        k(   26) = (   0.1104421   0.3188190   0.0424445), wk =   0.0493827
        k(   27) = (   0.1104421   0.3188190   0.0848890), wk =   0.0493827
        k(   28) = (   0.1104421   0.3188190  -0.1273335), wk =   0.0493827
        k(   29) = (   0.1104421   0.4463466   0.0000000), wk =   0.0493827
        k(   30) = (   0.1104421   0.4463466   0.0424445), wk =   0.0493827
        k(   31) = (   0.1104421   0.4463466   0.0848890), wk =   0.0493827
        k(   32) = (   0.1104421   0.4463466  -0.1273335), wk =   0.0493827
        k(   33) = (   0.1104421   0.5738741   0.0000000), wk =   0.0246914
        k(   34) = (   0.1104421   0.5738741   0.0424445), wk =   0.0493827
        k(   35) = (   0.1104421   0.5738741   0.0848890), wk =   0.0493827
        k(   36) = (   0.1104421   0.5738741  -0.1273335), wk =   0.0246914
        k(   37) = (   0.2208843   0.3825828   0.0000000), wk =   0.0246914
        k(   38) = (   0.2208843   0.3825828   0.0424445), wk =   0.0493827
        k(   39) = (   0.2208843   0.3825828   0.0848890), wk =   0.0493827
        k(   40) = (   0.2208843   0.3825828  -0.1273335), wk =   0.0246914
        k(   41) = (   0.2208843   0.5101103   0.0000000), wk =   0.0493827
        k(   42) = (   0.2208843   0.5101103   0.0424445), wk =   0.0493827
        k(   43) = (   0.2208843   0.5101103   0.0848890), wk =   0.0493827
        k(   44) = (   0.2208843   0.5101103  -0.1273335), wk =   0.0493827
        k(   45) = (   0.3313264   0.5738741   0.0000000), wk =   0.0082305
        k(   46) = (   0.3313264   0.5738741   0.0424445), wk =   0.0164609
        k(   47) = (   0.3313264   0.5738741   0.0848890), wk =   0.0164609
        k(   48) = (   0.3313264   0.5738741  -0.1273335), wk =   0.0082305
        k(   49) = (   0.0000000  -0.1275276   0.0424445), wk =   0.0246914
        k(   50) = (   0.0000000  -0.1275276   0.0848890), wk =   0.0246914
        k(   51) = (   0.0000000  -0.2550552   0.0424445), wk =   0.0246914
        k(   52) = (   0.0000000  -0.2550552   0.0848890), wk =   0.0246914
        k(   53) = (   0.0000000  -0.3825828   0.0424445), wk =   0.0246914
        k(   54) = (   0.0000000  -0.3825828   0.0848890), wk =   0.0246914
        k(   55) = (   0.0000000  -0.5101103   0.0424445), wk =   0.0246914
        k(   56) = (   0.0000000  -0.5101103   0.0848890), wk =   0.0246914
        k(   57) = (  -0.1104421  -0.3188190   0.0424445), wk =   0.0493827
        k(   58) = (  -0.1104421  -0.3188190   0.0848890), wk =   0.0493827
        k(   59) = (  -0.1104421  -0.4463466   0.0424445), wk =   0.0493827
        k(   60) = (  -0.1104421  -0.4463466   0.0848890), wk =   0.0493827
        k(   61) = (  -0.2208843  -0.5101103   0.0424445), wk =   0.0493827
        k(   62) = (  -0.2208843  -0.5101103   0.0848890), wk =   0.0493827

                       cryst. coord.
        k(    1) = (   0.0000000   0.0000000   0.0000000), wk =   0.0041152
        k(    2) = (   0.0000000   0.0000000   0.1666667), wk =   0.0082305
        k(    3) = (   0.0000000   0.0000000   0.3333333), wk =   0.0082305
        k(    4) = (   0.0000000   0.0000000  -0.5000000), wk =   0.0041152
        k(    5) = (   0.0000000   0.1111111   0.0000000), wk =   0.0246914
        k(    6) = (   0.0000000   0.1111111   0.1666667), wk =   0.0246914
        k(    7) = (   0.0000000   0.1111111   0.3333333), wk =   0.0246914
        k(    8) = (   0.0000000   0.1111111  -0.5000000), wk =   0.0246914
        k(    9) = (   0.0000000   0.2222222   0.0000000), wk =   0.0246914
        k(   10) = (   0.0000000   0.2222222   0.1666667), wk =   0.0246914
        k(   11) = (   0.0000000   0.2222222   0.3333333), wk =   0.0246914
        k(   12) = (   0.0000000   0.2222222  -0.5000000), wk =   0.0246914
        k(   13) = (   0.0000000   0.3333333   0.0000000), wk =   0.0246914
        k(   14) = (   0.0000000   0.3333333   0.1666667), wk =   0.0246914
        k(   15) = (   0.0000000   0.3333333   0.3333333), wk =   0.0246914
        k(   16) = (   0.0000000   0.3333333  -0.5000000), wk =   0.0246914
        k(   17) = (   0.0000000   0.4444444   0.0000000), wk =   0.0246914
        k(   18) = (   0.0000000   0.4444444   0.1666667), wk =   0.0246914
        k(   19) = (   0.0000000   0.4444444   0.3333333), wk =   0.0246914
        k(   20) = (   0.0000000   0.4444444  -0.5000000), wk =   0.0246914
        k(   21) = (   0.1111111   0.1111111   0.0000000), wk =   0.0246914
        k(   22) = (   0.1111111   0.1111111   0.1666667), wk =   0.0493827
        k(   23) = (   0.1111111   0.1111111   0.3333333), wk =   0.0493827
        k(   24) = (   0.1111111   0.1111111  -0.5000000), wk =   0.0246914
        k(   25) = (   0.1111111   0.2222222   0.0000000), wk =   0.0493827
        k(   26) = (   0.1111111   0.2222222   0.1666667), wk =   0.0493827
        k(   27) = (   0.1111111   0.2222222   0.3333333), wk =   0.0493827
        k(   28) = (   0.1111111   0.2222222  -0.5000000), wk =   0.0493827
        k(   29) = (   0.1111111   0.3333333   0.0000000), wk =   0.0493827
        k(   30) = (   0.1111111   0.3333333   0.1666667), wk =   0.0493827
        k(   31) = (   0.1111111   0.3333333   0.3333333), wk =   0.0493827
        k(   32) = (   0.1111111   0.3333333  -0.5000000), wk =   0.0493827
        k(   33) = (   0.1111111   0.4444444   0.0000000), wk =   0.0246914
        k(   34) = (   0.1111111   0.4444444   0.1666667), wk =   0.0493827
        k(   35) = (   0.1111111   0.4444444   0.3333333), wk =   0.0493827
        k(   36) = (   0.1111111   0.4444444  -0.5000000), wk =   0.0246914
        k(   37) = (   0.2222222   0.2222222   0.0000000), wk =   0.0246914
        k(   38) = (   0.2222222   0.2222222   0.1666667), wk =   0.0493827
        k(   39) = (   0.2222222   0.2222222   0.3333333), wk =   0.0493827
        k(   40) = (   0.2222222   0.2222222  -0.5000000), wk =   0.0246914
        k(   41) = (   0.2222222   0.3333333   0.0000000), wk =   0.0493827
        k(   42) = (   0.2222222   0.3333333   0.1666667), wk =   0.0493827
        k(   43) = (   0.2222222   0.3333333   0.3333333), wk =   0.0493827
        k(   44) = (   0.2222222   0.3333333  -0.5000000), wk =   0.0493827
        k(   45) = (   0.3333333   0.3333333   0.0000000), wk =   0.0082305
        k(   46) = (   0.3333333   0.3333333   0.1666667), wk =   0.0164609
        k(   47) = (   0.3333333   0.3333333   0.3333333), wk =   0.0164609
        k(   48) = (   0.3333333   0.3333333  -0.5000000), wk =   0.0082305
        k(   49) = (   0.0000000  -0.1111111   0.1666667), wk =   0.0246914
        k(   50) = (   0.0000000  -0.1111111   0.3333333), wk =   0.0246914
        k(   51) = (   0.0000000  -0.2222222   0.1666667), wk =   0.0246914
        k(   52) = (   0.0000000  -0.2222222   0.3333333), wk =   0.0246914
        k(   53) = (   0.0000000  -0.3333333   0.1666667), wk =   0.0246914
        k(   54) = (   0.0000000  -0.3333333   0.3333333), wk =   0.0246914
        k(   55) = (   0.0000000  -0.4444444   0.1666667), wk =   0.0246914
        k(   56) = (   0.0000000  -0.4444444   0.3333333), wk =   0.0246914
        k(   57) = (  -0.1111111  -0.2222222   0.1666667), wk =   0.0493827
        k(   58) = (  -0.1111111  -0.2222222   0.3333333), wk =   0.0493827
        k(   59) = (  -0.1111111  -0.3333333   0.1666667), wk =   0.0493827
        k(   60) = (  -0.1111111  -0.3333333   0.3333333), wk =   0.0493827
        k(   61) = (  -0.2222222  -0.3333333   0.1666667), wk =   0.0493827
        k(   62) = (  -0.2222222  -0.3333333   0.3333333), wk =   0.0493827

     Initial potential from superposition of free atoms

     starting charge   51.99700, renormalised to   52.00000

[...]

     Starting wfcs are   36 randomized atomic wfcs

     Self-consistent Calculation

[...]

     total energy              =    -369.76915250 Ry
     estimated scf accuracy    <       0.00000001 Ry

     iteration # 20     ecut=    70.00 Ry     beta= 0.70
     Davidson diagonalization with overlap

     ethr =  2.88E-11,  avg # of iterations =  2.8

[...]

     End of self-consistent calculation

[...]

          k = 0.0000-0.5101 0.0849 (  7189 PWs)   bands (ev):

[...]

          k =-0.2209-0.5101 0.0849 (  7195 PWs)   bands (ev):

[...]

     occupation numbers
     1.0000   1.0000   1.0000   1.0000   1.0000   1.0000   1.0000   1.0000
     1.0000   1.0000   1.0000   1.0000   1.0000   1.0000   1.0000   1.0000
     1.0000   1.0000   1.0000   1.0000   1.0000   1.0000   1.0000   1.0000
     1.0000   1.0000

     highest occupied level (ev):    10.8383

!    total energy              =    -369.76915250 Ry
     estimated scf accuracy    <          7.4E-10 Ry

     The total energy is the sum of the following terms:
     one-electron contribution =    -172.32757004 Ry
     hartree contribution      =     108.29765236 Ry
     xc contribution           =     -66.68341211 Ry
     ewald contribution        =    -239.05582271 Ry

     convergence has been achieved in  20 iterations

[...]

     Forces acting on atoms (cartesian axes, Ry/au):

     atom    1 type  2   force =     0.00000000    0.00000000   -0.00001649
     atom    2 type  1   force =     0.00000000    0.00000000   -0.00002674
     atom    3 type  1   force =     0.00000000    0.00000000    0.00003164
     atom    4 type  2   force =     0.00000000    0.00000000    0.00001245
     atom    5 type  1   force =     0.00000000    0.00000000   -0.00002779
     atom    6 type  1   force =     0.00000000   -0.00000000    0.00002693
     The non-local contrib.  to forces
     atom    1 type  2   force =     0.00000000   -0.00000000    0.00001806
     atom    2 type  1   force =     0.00000000   -0.00000000    0.24517083
     atom    3 type  1   force =     0.00000000    0.00000000   -0.24516537
     atom    4 type  2   force =     0.00000000    0.00000000   -0.00001813
     atom    5 type  1   force =     0.00000000    0.00000000    0.24516715
     atom    6 type  1   force =     0.00000000   -0.00000000   -0.24516905
     The ionic contribution  to forces
     atom    1 type  2   force =     0.00000003   -0.00000002   -0.00449073
     atom    2 type  1   force =    -0.00000002    0.00000001  -14.10942377
     atom    3 type  1   force =    -0.00000002    0.00000001   14.10581641
     atom    4 type  2   force =    -0.00000003    0.00000002    0.00443898
     atom    5 type  1   force =     0.00000002   -0.00000001  -14.10575559
     atom    6 type  1   force =     0.00000002   -0.00000001   14.10941470
     The local contribution  to forces
     atom    1 type  2   force =     0.00000086    0.00000055    0.00432359
     atom    2 type  1   force =    -0.00000000    0.00000005   13.86954678
     atom    3 type  1   force =    -0.00000000    0.00000005  -13.86600079
     atom    4 type  2   force =    -0.00000000    0.00000109   -0.00426598
     atom    5 type  1   force =     0.00000004    0.00000002   13.86595006
     atom    6 type  1   force =     0.00000004    0.00000002  -13.86954543
     The core correction contribution to forces
     atom    1 type  2   force =    -0.00000002   -0.00000001   -0.00000057
     atom    2 type  1   force =     0.00000000   -0.00000001   -0.00536545
     atom    3 type  1   force =     0.00000000   -0.00000001    0.00536502
     atom    4 type  2   force =     0.00000000   -0.00000002    0.00000050
     atom    5 type  1   force =    -0.00000001   -0.00000000   -0.00536514
     atom    6 type  1   force =    -0.00000001   -0.00000000    0.00536535
     The Hubbard contrib.    to forces
     atom    1 type  2   force =     0.00000000    0.00000000    0.00000000
     atom    2 type  1   force =     0.00000000    0.00000000    0.00000000
     atom    3 type  1   force =     0.00000000    0.00000000    0.00000000
     atom    4 type  2   force =     0.00000000    0.00000000    0.00000000
     atom    5 type  1   force =     0.00000000    0.00000000    0.00000000
     atom    6 type  1   force =     0.00000000    0.00000000    0.00000000
     The SCF correction term to forces
     atom    1 type  2   force =     0.00000000    0.00000000    0.00013353
     atom    2 type  1   force =    -0.00000000   -0.00000000    0.00004525
     atom    3 type  1   force =    -0.00000000    0.00000000    0.00001674
     atom    4 type  2   force =    -0.00000000    0.00000000   -0.00014255
     atom    5 type  1   force =     0.00000000    0.00000000   -0.00002390
     atom    6 type  1   force =    -0.00000000   -0.00000000   -0.00003825

     Total force =     0.000060     Total SCF correction =     0.000206
     SCF correction compared to forces is large: reduce conv_thr to get better values

     Computing stress (Cartesian axis) and pressure

     Non-local corr. energy    =       0.55602689 Ry

          total   stress  (Ry/bohr**3)                   (kbar)     P=       -1.53
  -0.00000687  -0.00000000   0.00000000           -1.01       -0.00        0.00
   0.00000000  -0.00000687   0.00000000            0.00       -1.01        0.00
   0.00000000  -0.00000000  -0.00001755            0.00       -0.00       -2.58

     kinetic stress (kbar)  16163.08      0.00     -0.00
                                0.00  16163.08     -0.00
                                0.00      0.00  16248.15

     local   stress (kbar) -33918.55      0.00      0.00
                                0.00 -33918.55     -0.00
                                0.00     -0.00  18907.17

     nonloc. stress (kbar)  12786.07     -0.00      0.00
                               -0.00  12786.07      0.00
                               -0.00     -0.00  12815.56

     hartree stress (kbar)  15249.34     -0.00      0.00
                               -0.00  15249.34      0.00
                                0.00      0.00  -8554.72

     exc-cor stress (kbar)   -291.75     -0.00     -0.00
                               -0.00   -291.75      0.00
                               -0.00      0.00   -288.13

     corecor stress (kbar)  -3593.88      0.00      0.00
                                0.00  -3593.88     -0.00
                                0.00     -0.00  -3597.91

     ewald   stress (kbar)  -6432.06     -0.00     -0.00
                               -0.00  -6432.06      0.00
                               -0.00      0.00 -35574.89

     hubbard stress (kbar)      0.00      0.00      0.00
                                0.00      0.00      0.00
                                0.00      0.00      0.00

     DFT-D   stress (kbar)      0.00      0.00      0.00
                                0.00      0.00      0.00
                                0.00      0.00      0.00

     XDM     stress (kbar)      0.00      0.00      0.00
                                0.00      0.00      0.00
                                0.00      0.00      0.00

     dft-nl  stress (kbar)     36.73      0.00      0.00
                                0.00     36.73     -0.00
                                0.00     -0.00     42.18

     TS-vdW  stress (kbar)      0.00      0.00      0.00
                                0.00      0.00      0.00
                                0.00      0.00      0.00

[...]

                                0.00      0.00      0.00

     Writing output data file ./tmp/BULK-MoS2.save/

     General routines

     Parallel routines

   This run was terminated on:  13:18:17  15Apr2024

   JOB DONE.