     Program PWSCF v.6.8 starts on 15Apr2024 at 13: 5:20

     R & G space division:  proc/nbgrp/npool/nimage =      32

     Reading input from 2L-MoS2-vcrelax.in

     Current dimensions of program PWSCF are:
     Max number of different atomic species (ntypx) = 10
     Max number of k-points (npk) =  40000
     Max angular momentum in pseudopotentials (lmaxx) =  4

     IMPORTANT: XC functional enforced from input :
     Exchange-correlation= VDW-DF2-B86R
                           (   1   4  26   0   2   0   0)
     Any further DFT definition will be discarded
     Please, verify this is what you really want

     Using Slab Decomposition

     bravais-lattice index     =            4
     lattice parameter (alat)  =       5.9526  a.u.
     unit-cell volume          =    1497.8652 (a.u.)^3
     number of atoms/cell      =            6
     number of atomic types    =            2
     number of electrons       =        52.00
     number of Kohn-Sham states=           26
     kinetic-energy cutoff     =      70.0000  Ry
     charge density cutoff     =     240.0000  Ry
     scf convergence threshold =      1.0E-06
     mixing beta               =       0.7000
     number of iterations used =            8  plain     mixing
     energy convergence thresh.=      1.0E-04
     force convergence thresh. =      1.0E-03
     press convergence thresh. =      5.0E-01
     Exchange-correlation= VDW-DF2-B86R
                           (   1   4  26   0   2   0   0)
     nstep                     =           50

     celldm(1)=   5.952637  celldm(2)=   0.000000  celldm(3)=   8.200000
     celldm(4)=   0.000000  celldm(5)=   0.000000  celldm(6)=   0.000000

     crystal axes: (cart. coord. in units of alat)
               a(1) = (   1.000000   0.000000   0.000000 )
               a(2) = (  -0.500000   0.866025   0.000000 )
               a(3) = (   0.000000   0.000000   8.200000 )

     reciprocal axes: (cart. coord. in units 2 pi/alat)
               b(1) = (  1.000000  0.577350  0.000000 )
               b(2) = (  0.000000  1.154701  0.000000 )
               b(3) = (  0.000000  0.000000  0.121951 )

     PseudoPot. # 1 for S  read from file:
     /exports/commonscratch/sgrillo/MAURIZIA/MoS2/pseudos/S.upf
     MD5 check sum: b72b6a9ca752e39de1a6cc592280dae2
     Pseudo is Norm-conserving + core correction, Zval =  6.0
     Generated using ONCVPSP code by D. R. Hamann
     Using radial grid of 1148 points,  6 beta functions with:
                l(1) =   0
                l(2) =   0
                l(3) =   1
                l(4) =   1
                l(5) =   2
                l(6) =   2

     PseudoPot. # 2 for Mo read from file:
     /exports/commonscratch/sgrillo/MAURIZIA/MoS2/pseudos/Mo.upf
     MD5 check sum: 7ca7a9feba7bf08d88d14bc7fbf60c1e
     Pseudo is Norm-conserving + core correction, Zval = 14.0
     Generated using ONCVPSP code by D. R. Hamann
     Using radial grid of 1640 points,  6 beta functions with:
                l(1) =   0
                l(2) =   0
                l(3) =   1
                l(4) =   1
                l(5) =   2
                l(6) =   2

     atomic species   valence    mass     pseudopotential
        S              6.00    32.06500     S ( 1.00)
        Mo            14.00    95.94000     Mo( 1.00)

      6 Sym. Ops. (no inversion) found

                                    s                        frac. trans.

      isym =  1     identity

 cryst.   s( 1) = (     1          0          0      )
                  (     0          1          0      )
                  (     0          0          1      )

 cart.    s( 1) = (  1.0000000  0.0000000  0.0000000 )
                  (  0.0000000  1.0000000  0.0000000 )
                  (  0.0000000  0.0000000  1.0000000 )

      isym =  2     120 deg rotation - cryst. axis [0,0,1]

[...]

      isym =  4     inv. 180 deg rotation - cart. axis [1,0,0]

[...]

      isym =  5     inv. 180 deg rotation - cryst. axis [0,1,0]

[...]

     point group C_3v (3m)
     there are  3 classes
     the character table:

       E     2C3   3s_v
A_1    1.00  1.00  1.00
A_2    1.00  1.00 -1.00
E      2.00 -1.00  0.00

     the symmetry operations in each class and the name of the first element:

     E        1
          identity
     2C3      2    3
          120 deg rotation - cryst. axis [0,0,1]
     3s_v     4    5    6
          inv. 180 deg rotation - cart. axis [1,0,0]

   Cartesian axes

     site n.     atom                  positions (alat units)
         1           Mo  tau(   1) = (   0.5000000   0.2886751   0.4999348  )
         2           S   tau(   2) = (   0.0000000   0.5773503   0.0000000  )
         3           S   tau(   3) = (   0.0000000   0.5773503   0.9998985  )
         4           Mo  tau(   4) = (   0.0000000   0.5773503   2.8318839  )
         5           S   tau(   5) = (   0.5000000   0.2886751   2.3319201  )
         6           S   tau(   6) = (   0.5000000   0.2886751   3.3318187  )

   Crystallographic axes

     site n.     atom                  positions (cryst. coord.)
         1           Mo  tau(   1) = (  0.6666667  0.3333333  0.0609677  )
         2           S   tau(   2) = (  0.3333333  0.6666667  0.0000000  )
         3           S   tau(   3) = (  0.3333333  0.6666667  0.1219388  )
         4           Mo  tau(   4) = (  0.3333333  0.6666667  0.3453517  )
         5           S   tau(   5) = (  0.6666667  0.3333333  0.2843805  )
         6           S   tau(   6) = (  0.6666667  0.3333333  0.4063194  )

     number of k points=    12
                       cart. coord. in units 2pi/alat
        k(    1) = (   0.0000000   0.0000000   0.0000000), wk =   0.0246914
        k(    2) = (   0.0000000   0.1283001   0.0000000), wk =   0.1481481
        k(    3) = (   0.0000000   0.2566001   0.0000000), wk =   0.1481481
        k(    4) = (   0.0000000   0.3849002   0.0000000), wk =   0.1481481
        k(    5) = (   0.0000000   0.5132002   0.0000000), wk =   0.1481481
        k(    6) = (   0.1111111   0.1924501   0.0000000), wk =   0.1481481
        k(    7) = (   0.1111111   0.3207501   0.0000000), wk =   0.2962963
        k(    8) = (   0.1111111   0.4490502   0.0000000), wk =   0.2962963
        k(    9) = (   0.1111111   0.5773503   0.0000000), wk =   0.1481481
        k(   10) = (   0.2222222   0.3849002   0.0000000), wk =   0.1481481
        k(   11) = (   0.2222222   0.5132002   0.0000000), wk =   0.2962963
        k(   12) = (   0.3333333   0.5773503   0.0000000), wk =   0.0493827

                       cryst. coord.
        k(    1) = (   0.0000000   0.0000000   0.0000000), wk =   0.0246914
        k(    2) = (   0.0000000   0.1111111   0.0000000), wk =   0.1481481
        k(    3) = (   0.0000000   0.2222222   0.0000000), wk =   0.1481481
        k(    4) = (   0.0000000   0.3333333   0.0000000), wk =   0.1481481
        k(    5) = (   0.0000000   0.4444444   0.0000000), wk =   0.1481481
        k(    6) = (   0.1111111   0.1111111   0.0000000), wk =   0.1481481
        k(    7) = (   0.1111111   0.2222222   0.0000000), wk =   0.2962963
        k(    8) = (   0.1111111   0.3333333   0.0000000), wk =   0.2962963
        k(    9) = (   0.1111111   0.4444444   0.0000000), wk =   0.1481481
        k(   10) = (   0.2222222   0.2222222   0.0000000), wk =   0.1481481
        k(   11) = (   0.2222222   0.3333333   0.0000000), wk =   0.2962963
        k(   12) = (   0.3333333   0.3333333   0.0000000), wk =   0.0493827

     Initial potential from superposition of free atoms

     starting charge   51.99700, renormalised to   52.00000

     negative rho (up, down):  5.214E-05 0.000E+00

     %%%%%%%%%%%%%%%%%%%%%%%%%%%%%%%%%%%%%%%%%%%%%%%%%%%%%%%%%%%%%%%%%%%%%%%%
     %                                                                      %
     % You are using vdW-DF, which was implemented by the Thonhauser group. %
     % Please cite the following two papers that made this development      %
     % possible and the two reviews that describe the various versions:     %
     %                                                                      %
     %   T. Thonhauser et al., PRL 115, 136402 (2015).                      %
     %   T. Thonhauser et al., PRB 76, 125112 (2007).                       %
     %   K. Berland et al., Rep. Prog. Phys. 78, 066501 (2015).             %
     %   D.C. Langreth et al., J. Phys.: Condens. Matter 21, 084203 (2009). %
     %                                                                      %
     %                                                                      %
     % If you are calculating the stress with vdW-DF, please also cite:     %
     %                                                                      %
     %   R. Sabatini et al., J. Phys.: Condens. Matter 24, 424209 (2012).   %
     %                                                                      %
     %%%%%%%%%%%%%%%%%%%%%%%%%%%%%%%%%%%%%%%%%%%%%%%%%%%%%%%%%%%%%%%%%%%%%%%%

     Carrying out vdW-DF run using the following parameters:
     Nqs    =  20  Npoints =  1024  r_max =  100.000
     q_mesh =  0.00001000  0.04494208  0.09755937  0.15916263
               0.23128650  0.31572767  0.41458969  0.53033537
               0.66584808  0.82450364  1.01025438  1.22772762
               1.48234092  1.78043706  2.12944203  2.53805004
               3.01644009  3.57652955  4.23227104  5.00000000

     Non-local corr. energy    =       0.59601494 Ry

     Starting wfcs are   36 randomized atomic wfcs

     Self-consistent Calculation

     iteration #  1     ecut=    60.00 Ry     beta= 0.70
     Davidson diagonalization with overlap

     ethr =  1.00E-02,  avg # of iterations =  2.0

[...]

     total energy              =    -369.18304781 Ry
     estimated scf accuracy    <       0.90247462 Ry

[...]

     End of self-consistent calculation

          k = 0.0000 0.0000 0.0000 ( 11863 PWs)   bands (ev):

   -59.0159 -59.0139 -33.1833 -33.1813 -32.9321 -32.9321 -32.9301 -32.9301
   -12.3588 -12.3458 -11.0810 -11.0577  -3.9272  -3.8230  -0.7517  -0.7517
    -0.7502  -0.7502  -0.2959   0.0558   0.3738   0.3738   0.3756   0.3756
     1.5334   1.7802

     occupation numbers
     1.0000   1.0000   1.0000   1.0000   1.0000   1.0000   1.0000   1.0000
     1.0000   1.0000   1.0000   1.0000   1.0000   1.0000   1.0000   1.0000
     1.0000   1.0000   1.0000   1.0000   1.0000   1.0000   1.0000   1.0000
     1.0000   1.0000

[...]

     highest occupied level (ev):     1.7802

!    total energy              =    -369.73554758 Ry
     estimated scf accuracy    <       0.00000045 Ry

     The total energy is the sum of the following terms:
     one-electron contribution =   -2366.86683903 Ry
     hartree contribution      =    1189.50571901 Ry
     xc contribution           =     -66.65948576 Ry
     ewald contribution        =     874.28505821 Ry

     convergence has been achieved in  14 iterations

[...]

     Forces acting on atoms (cartesian axes, Ry/au):

     atom    1 type  2   force =     0.00000000    0.00000000    0.00003899
     atom    2 type  1   force =     0.00000000    0.00000000   -0.00104008
     atom    3 type  1   force =     0.00000000    0.00000000    0.00391283
[...]

     Writing output data file ./tmp/2L-MoS2.save/
     NEW-OLD atomic charge density approx. for the potential

[...]

     extrapolated charge   52.01284, renormalised to   52.00000

[...]

     Energy error            =      7.6E-06 Ry
     Gradient error          =      5.8E-04 Ry/Bohr
     Cell gradient error     =      7.7E-02 kbar
ibrav =      4
 celldm(1) =      5.94960478
 celldm(3) =      8.20417943
Input lattice vectors:
     0.99949057     0.00000000     0.00000000
    -0.49974529     0.86558423     0.00000000
     0.00000000     0.00000000     8.20000000
New lattice vectors in INITIAL alat:
     0.99949057     0.00000000     0.00000000
    -0.49974529     0.86558423     0.00000000
     0.00000000     0.00000000     8.20000000
New lattice vectors in NEW alat (for information only):
     1.00000000     0.00000000     0.00000000
    -0.50000000     0.86602540     0.00000000
     0.00000000     0.00000000     8.20417943
Discrepancy in bohr =     0.000000    0.000000    0.000000

     bfgs converged in  22 scf cycles and  21 bfgs steps
     (criteria: energy <  1.0E-04 Ry, force <  1.0E-03Ry/Bohr, cell <  5.0E-01kbar)

     End of BFGS Geometry Optimization

     Final enthalpy           =    -369.7422193929 Ry

     File ./tmp/2L-MoS2.bfgs deleted, as requested
Begin final coordinates
     new unit-cell volume =   1496.33948 a.u.^3 (   221.73463 Ang^3 )
     density =      2.39748 g/cm^3

CELL_PARAMETERS (alat=  5.95263722)
   0.999490573   0.000000000   0.000000000
  -0.499745286   0.865584227   0.000000000
   0.000000000   0.000000000   8.200000000

ATOMIC_POSITIONS (angstrom)
Mo            1.5741976251        0.9088634222        2.1408679599
S             0.0000000000        1.8177268444        0.5650074589
S             0.0000000000        1.8177268444        3.7184123088
Mo            0.0000000000        1.8177268444        8.3543702863
S             1.5741976251        0.9088634222        6.7767908053
S             1.5741976251        0.9088634222        9.9302372138
End final coordinates

     Writing output data file ./tmp/2L-MoS2.save/

     Final scf calculation at the relaxed structure.
     The G-vectors are recalculated for the final unit cell
     Results may differ from those at the preceding step.

     Using Slab Decomposition

     bravais-lattice index     =            4
     lattice parameter (alat)  =       5.9526  a.u.
     unit-cell volume          =    1496.3395 (a.u.)^3
     number of atoms/cell      =            6
     number of atomic types    =            2
     number of electrons       =        52.00
     number of Kohn-Sham states=           26
     kinetic-energy cutoff     =      60.0000  Ry
     charge density cutoff     =     240.0000  Ry
     scf convergence threshold =      1.4E-08
     mixing beta               =       0.7000
     number of iterations used =            8  plain     mixing
     press convergence thresh. =      5.0E-01
     Exchange-correlation= VDW-DF2-B86R
                           (   1   4  26   0   2   0   0)

     celldm(1)=   5.952637  celldm(2)=   0.000000  celldm(3)=   8.200000
     celldm(4)=   0.000000  celldm(5)=   0.000000  celldm(6)=   0.000000

     crystal axes: (cart. coord. in units of alat)
               a(1) = (   0.999491   0.000000   0.000000 )
               a(2) = (  -0.499745   0.865584   0.000000 )
               a(3) = (   0.000000   0.000000   8.200000 )

     reciprocal axes: (cart. coord. in units 2 pi/alat)
               b(1) = (  1.000510  0.577645  0.000000 )
               b(2) = (  0.000000  1.155289  0.000000 )
               b(3) = (  0.000000  0.000000  0.121951 )

     PseudoPot. # 1 for S  read from file:
     /exports/commonscratch/sgrillo/MAURIZIA/MoS2/pseudos/S.upf
     MD5 check sum: b72b6a9ca752e39de1a6cc592280dae2
     Pseudo is Norm-conserving + core correction, Zval =  6.0
     Generated using ONCVPSP code by D. R. Hamann
     Using radial grid of 1148 points,  6 beta functions with:
                l(1) =   0
                l(2) =   0
                l(3) =   1
                l(4) =   1
                l(5) =   2
                l(6) =   2

     PseudoPot. # 2 for Mo read from file:
     /exports/commonscratch/sgrillo/MAURIZIA/MoS2/pseudos/Mo.upf
     MD5 check sum: 7ca7a9feba7bf08d88d14bc7fbf60c1e
     Pseudo is Norm-conserving + core correction, Zval = 14.0
     Generated using ONCVPSP code by D. R. Hamann
     Using radial grid of 1640 points,  6 beta functions with:
                l(1) =   0
                l(2) =   0
                l(3) =   1
                l(4) =   1
                l(5) =   2
                l(6) =   2

     atomic species   valence    mass     pseudopotential
        S              6.00    32.06500     S ( 1.00)
        Mo            14.00    95.94000     Mo( 1.00)

      6 Sym. Ops. (no inversion) found

                                    s                        frac. trans.

      isym =  1     identity

[...]

      isym =  3     120 deg rotation - cryst. axis [0,0,-1]

[...]

      isym =  4     inv. 180 deg rotation - cart. axis [1,0,0]

[...]

      isym =  6     inv. 180 deg rotation - cryst. axis [1,1,0]

 cryst.   s( 6) = (     0         -1          0      )
                  (    -1          0          0      )
                  (     0          0          1      )

 cart.    s( 6) = (  0.5000000 -0.8660254  0.0000000 )
                  ( -0.8660254 -0.5000000  0.0000000 )
                  (  0.0000000  0.0000000  1.0000000 )

     point group C_3v (3m)
     there are  3 classes
     the character table:

       E     2C3   3s_v
A_1    1.00  1.00  1.00
A_2    1.00  1.00 -1.00
E      2.00 -1.00  0.00

     the symmetry operations in each class and the name of the first element:

     E        1
          identity
     2C3      2    3
          120 deg rotation - cryst. axis [0,0,1]
     3s_v     4    5    6
          inv. 180 deg rotation - cart. axis [1,0,0]

   Cartesian axes

     site n.     atom                  positions (alat units)
         1           Mo  tau(   1) = (   0.4997453   0.2885281   0.6796406  )
         2           S   tau(   2) = (   0.0000000   0.5770561   0.1793674  )
         3           S   tau(   3) = (   0.0000000   0.5770561   1.1804484  )
         4           Mo  tau(   4) = (   0.0000000   0.5770561   2.6521811  )
         5           S   tau(   5) = (   0.4997453   0.2885281   2.1513622  )
         6           S   tau(   6) = (   0.4997453   0.2885281   3.1524563  )

   Crystallographic axes

     site n.     atom                  positions (cryst. coord.)
         1           Mo  tau(   1) = (  0.6666667  0.3333333  0.0828830  )
         2           S   tau(   2) = (  0.3333333  0.6666667  0.0218741  )
         3           S   tau(   3) = (  0.3333333  0.6666667  0.1439571  )
         4           Mo  tau(   4) = (  0.3333333  0.6666667  0.3234367  )
         5           S   tau(   5) = (  0.6666667  0.3333333  0.2623612  )
         6           S   tau(   6) = (  0.6666667  0.3333333  0.3844459  )

     number of k points=    12
                       cart. coord. in units 2pi/alat
        k(    1) = (   0.0000000   0.0000000   0.0000000), wk =   0.0246914
        k(    2) = (   0.0000000   0.1283655   0.0000000), wk =   0.1481481
        k(    3) = (   0.0000000   0.2567309   0.0000000), wk =   0.1481481
        k(    4) = (   0.0000000   0.3850964   0.0000000), wk =   0.1481481
        k(    5) = (   0.0000000   0.5134618   0.0000000), wk =   0.1481481
        k(    6) = (   0.1111677   0.1925482   0.0000000), wk =   0.1481481
        k(    7) = (   0.1111677   0.3209136   0.0000000), wk =   0.2962963
        k(    8) = (   0.1111677   0.4492791   0.0000000), wk =   0.2962963
        k(    9) = (   0.1111677   0.5776445   0.0000000), wk =   0.1481481
        k(   10) = (   0.2223355   0.3850964   0.0000000), wk =   0.1481481
        k(   11) = (   0.2223355   0.5134618   0.0000000), wk =   0.2962963
        k(   12) = (   0.3335032   0.5776445   0.0000000), wk =   0.0493827

                       cryst. coord.
        k(    1) = (   0.0000000   0.0000000   0.0000000), wk =   0.0246914
        k(    2) = (   0.0000000   0.1111111   0.0000000), wk =   0.1481481
        k(    3) = (   0.0000000   0.2222222   0.0000000), wk =   0.1481481
        k(    4) = (   0.0000000   0.3333333   0.0000000), wk =   0.1481481
        k(    5) = (   0.0000000   0.4444444   0.0000000), wk =   0.1481481
        k(    6) = (   0.1111111   0.1111111   0.0000000), wk =   0.1481481
        k(    7) = (   0.1111111   0.2222222   0.0000000), wk =   0.2962963
        k(    8) = (   0.1111111   0.3333333   0.0000000), wk =   0.2962963
        k(    9) = (   0.1111111   0.4444444   0.0000000), wk =   0.1481481
        k(   10) = (   0.2222222   0.2222222   0.0000000), wk =   0.1481481
        k(   11) = (   0.2222222   0.3333333   0.0000000), wk =   0.2962963
        k(   12) = (   0.3333333   0.3333333   0.0000000), wk =   0.0493827

     Initial potential from superposition of free atoms

     starting charge   51.99700, renormalised to   52.00000

[...]

     Starting wfcs are   36 randomized atomic wfcs

     Self-consistent Calculation

[...]

     negative rho (up, down):  2.182E-06 0.000E+00

[...]

     total energy              =    -369.74209579 Ry
     estimated scf accuracy    <       0.00000002 Ry

     iteration # 20     ecut=    60.00 Ry     beta= 0.70
     Davidson diagonalization with overlap

     ethr =  3.39E-11,  avg # of iterations =  4.5

[...]

     End of self-consistent calculation

[...]

          k = 0.3335 0.5776 0.0000 ( 11688 PWs)   bands (ev):

[...]

     occupation numbers
     1.0000   1.0000   1.0000   1.0000   1.0000   1.0000   1.0000   1.0000
     1.0000   1.0000   1.0000   1.0000   1.0000   1.0000   1.0000   1.0000
     1.0000   1.0000   1.0000   1.0000   1.0000   1.0000   1.0000   1.0000
     1.0000   1.0000

     highest occupied level (ev):     2.1539

!    total energy              =    -369.74209579 Ry
     estimated scf accuracy    <          1.1E-09 Ry

     The total energy is the sum of the following terms:
     one-electron contribution =   -2931.83773566 Ry
     hartree contribution      =    1472.01447625 Ry
     xc contribution           =     -66.68957932 Ry
     ewald contribution        =    1156.77074294 Ry

     convergence has been achieved in  20 iterations

[...]

     Forces acting on atoms (cartesian axes, Ry/au):

     atom    1 type  2   force =     0.00000000    0.00000000   -0.00008501
     atom    2 type  1   force =     0.00000000    0.00000000   -0.00043316
     atom    3 type  1   force =     0.00000000    0.00000000    0.00059509
     atom    4 type  2   force =     0.00000000    0.00000000    0.00006052
     atom    5 type  1   force =     0.00000000    0.00000000   -0.00056902
     atom    6 type  1   force =     0.00000000    0.00000000    0.00043158
     The non-local contrib.  to forces
     atom    1 type  2   force =     0.00000000    0.00000000   -0.00217398
     atom    2 type  1   force =     0.00000000    0.00000000    0.24311459
     atom    3 type  1   force =     0.00000000    0.00000000   -0.24237642
     atom    4 type  2   force =     0.00000000    0.00000000    0.00218581
     atom    5 type  1   force =     0.00000000    0.00000000    0.24238940
     atom    6 type  1   force =     0.00000000   -0.00000000   -0.24311628
     The ionic contribution  to forces
     atom    1 type  2   force =     0.00000003   -0.00000002  -77.43846463
     atom    2 type  1   force =    -0.00000002    0.00000001  -64.39540341
     atom    3 type  1   force =    -0.00000002    0.00000001   -1.94364676
     atom    4 type  2   force =    -0.00000003    0.00000002   77.43845879
     atom    5 type  1   force =     0.00000002   -0.00000001    1.94375464
     atom    6 type  1   force =     0.00000002   -0.00000001   64.39530137
     The local contribution  to forces
     atom    1 type  2   force =     0.00000085    0.00000054   77.44026585
     atom    2 type  1   force =    -0.00000000    0.00000005   64.15704824
     atom    3 type  1   force =    -0.00000000    0.00000005    2.18146398
     atom    4 type  2   force =    -0.00000000    0.00000108  -77.44035339
     atom    5 type  1   force =     0.00000004    0.00000002   -2.18156846
     atom    6 type  1   force =     0.00000004    0.00000002  -64.15696539
     The core correction contribution to forces
     atom    1 type  2   force =    -0.00000002   -0.00000001    0.00009575
     atom    2 type  1   force =     0.00000000   -0.00000001   -0.00525105
     atom    3 type  1   force =     0.00000000   -0.00000001    0.00511797
     atom    4 type  2   force =     0.00000000   -0.00000002   -0.00009623
     atom    5 type  1   force =    -0.00000001   -0.00000000   -0.00511877
     atom    6 type  1   force =    -0.00000001   -0.00000000    0.00525097
     The Hubbard contrib.    to forces
     atom    1 type  2   force =     0.00000000    0.00000000    0.00000000
     atom    2 type  1   force =     0.00000000    0.00000000    0.00000000
     atom    3 type  1   force =     0.00000000    0.00000000    0.00000000
     atom    4 type  2   force =     0.00000000    0.00000000    0.00000000
     atom    5 type  1   force =     0.00000000    0.00000000    0.00000000
     atom    6 type  1   force =     0.00000000    0.00000000    0.00000000
     The SCF correction term to forces
     atom    1 type  2   force =     0.00000000    0.00000000    0.00018908
     atom    2 type  1   force =    -0.00000000    0.00000000    0.00005555
     atom    3 type  1   force =     0.00000000   -0.00000000    0.00003340
     atom    4 type  2   force =     0.00000000    0.00000000   -0.00013737
     atom    5 type  1   force =    -0.00000000   -0.00000000   -0.00002875
     atom    6 type  1   force =     0.00000000    0.00000000   -0.00004201

     Total force =     0.001031     Total SCF correction =     0.000248
     SCF correction compared to forces is large: reduce conv_thr to get better values

     Computing stress (Cartesian axis) and pressure

     Non-local corr. energy    =       0.57846650 Ry

          total   stress  (Ry/bohr**3)                   (kbar)     P=       -2.99
  -0.00000008   0.00000000   0.00000000           -0.01        0.00        0.00
   0.00000000  -0.00000008  -0.00000000            0.00       -0.01       -0.00
   0.00000000   0.00000000  -0.00006081            0.00        0.00       -8.95

     kinetic stress (kbar)   7850.21      0.00      0.00
                                0.00   7850.21     -0.00
                                0.00     -0.00   7877.37

     local   stress (kbar)-287865.61      0.00     -0.00
                                0.00-287865.61      0.00
                               -0.00      0.00 280694.43

     nonloc. stress (kbar)   6199.67      0.00      0.00
                                0.00   6199.67     -0.00
                                0.00     -0.00   6215.99

     hartree stress (kbar) 141502.60      0.00     -0.00
                                0.00 141502.60     -0.00
                               -0.00     -0.00-138291.51

     exc-cor stress (kbar)   -142.45     -0.00      0.00
                               -0.00   -142.45     -0.00
                                0.00     -0.00   -142.40

     corecor stress (kbar)  -1743.53      0.00      0.00
                                0.00  -1743.53     -0.00
                                0.00     -0.00  -1745.58

     ewald   stress (kbar) 134181.80     -0.00      0.00
                               -0.00 134181.80     -0.00
                                0.00     -0.00-154641.51

     hubbard stress (kbar)      0.00      0.00      0.00
                                0.00      0.00      0.00
                                0.00      0.00      0.00

     DFT-D   stress (kbar)      0.00      0.00      0.00
                                0.00      0.00      0.00
                                0.00      0.00      0.00

     XDM     stress (kbar)      0.00      0.00      0.00
                                0.00      0.00      0.00
                                0.00      0.00      0.00

     dft-nl  stress (kbar)     17.30      0.00      0.00
                                0.00     17.30     -0.00
                                0.00     -0.00     24.26

     TS-vdW  stress (kbar)      0.00      0.00      0.00
                                0.00      0.00      0.00
                                0.00      0.00      0.00

[...]

                                0.00      0.00      0.00

     Writing output data file ./tmp/2L-MoS2.save/

     General routines

     Parallel routines

   This run was terminated on:  13:14: 0  15Apr2024

   JOB DONE.