     Program PWSCF v.6.8 starts on 15Apr2024 at 13:25:19

     R & G space division:  proc/nbgrp/npool/nimage =      32

     Reading input from 2L-MoS2-scf.in

     Current dimensions of program PWSCF are:
     Max number of different atomic species (ntypx) = 10
     Max number of k-points (npk) =  40000
     Max angular momentum in pseudopotentials (lmaxx) =  4

     IMPORTANT: XC functional enforced from input :
     Exchange-correlation= VDW-DF2-B86R
                           (   1   4  26   0   2   0   0)
     Any further DFT definition will be discarded
     Please, verify this is what you really want

     Using Slab Decomposition

     bravais-lattice index     =            4
     lattice parameter (alat)  =       5.9526  a.u.
     unit-cell volume          =    1497.8652 (a.u.)^3
     number of atoms/cell      =            6
     number of atomic types    =            2
     number of electrons       =        52.00
     number of Kohn-Sham states=           26
     kinetic-energy cutoff     =      60.0000  Ry
     charge density cutoff     =     240.0000  Ry
     scf convergence threshold =      1.0E-06
     mixing beta               =       0.7000
     number of iterations used =            8  plain     mixing
     Exchange-correlation= VDW-DF2-B86R
                           (   1   4  26   0   2   0   0)

     celldm(1)=   5.952637  celldm(2)=   0.000000  celldm(3)=   8.200000
     celldm(4)=   0.000000  celldm(5)=   0.000000  celldm(6)=   0.000000

     crystal axes: (cart. coord. in units of alat)
               a(1) = (   1.000000   0.000000   0.000000 )
               a(2) = (  -0.500000   0.866025   0.000000 )
               a(3) = (   0.000000   0.000000   8.200000 )

     reciprocal axes: (cart. coord. in units 2 pi/alat)
               b(1) = (  1.000000  0.577350  0.000000 )
               b(2) = (  0.000000  1.154701  0.000000 )
               b(3) = (  0.000000  0.000000  0.121951 )

     PseudoPot. # 1 for S  read from file:
     /exports/commonscratch/sgrillo/MAURIZIA/MoS2/pseudos/S.upf
     MD5 check sum: b72b6a9ca752e39de1a6cc592280dae2
     Pseudo is Norm-conserving + core correction, Zval =  6.0
     Generated using ONCVPSP code by D. R. Hamann
     Using radial grid of 1148 points,  6 beta functions with:
                l(1) =   0
                l(2) =   0
                l(3) =   1
                l(4) =   1
                l(5) =   2
                l(6) =   2

     PseudoPot. # 2 for Mo read from file:
     /exports/commonscratch/sgrillo/MAURIZIA/MoS2/pseudos/Mo.upf
     MD5 check sum: 7ca7a9feba7bf08d88d14bc7fbf60c1e
     Pseudo is Norm-conserving + core correction, Zval = 14.0
     Generated using ONCVPSP code by D. R. Hamann
     Using radial grid of 1640 points,  6 beta functions with:
                l(1) =   0
                l(2) =   0
                l(3) =   1
                l(4) =   1
                l(5) =   2
                l(6) =   2

     atomic species   valence    mass     pseudopotential
        S              6.00    32.06500     S ( 1.00)
        Mo            14.00    95.94000     Mo( 1.00)

     No symmetry found

                                    s                        frac. trans.

      isym =  1     identity

 cryst.   s( 1) = (     1          0          0      )
                  (     0          1          0      )
                  (     0          0          1      )

 cart.    s( 1) = (  1.0000000  0.0000000  0.0000000 )
                  (  0.0000000  1.0000000  0.0000000 )
                  (  0.0000000  0.0000000  1.0000000 )

     point group C_1 (1)
     there are  1 classes
     the character table:

       E
A      1.00

     the symmetry operations in each class and the name of the first element:

     E        1
          identity

   Cartesian axes

     site n.     atom                  positions (alat units)
         1           Mo  tau(   1) = (   0.4997453   0.2885281   0.6796406  )
         2           S   tau(   2) = (   0.0000000   0.5770561   0.1793674  )
         3           S   tau(   3) = (   0.0000000   0.5770561   1.1804484  )
         4           Mo  tau(   4) = (   0.0000000   0.5770561   2.6521811  )
         5           S   tau(   5) = (   0.4997453   0.2885281   2.1513622  )
         6           S   tau(   6) = (   0.4997453   0.2885281   3.1524563  )

   Crystallographic axes

     site n.     atom                  positions (cryst. coord.)
         1           Mo  tau(   1) = (  0.6663270  0.3331635  0.0828830  )
         2           S   tau(   2) = (  0.3331635  0.6663270  0.0218741  )
         3           S   tau(   3) = (  0.3331635  0.6663270  0.1439571  )
         4           Mo  tau(   4) = (  0.3331635  0.6663270  0.3234367  )
         5           S   tau(   5) = (  0.6663270  0.3331635  0.2623612  )
         6           S   tau(   6) = (  0.6663270  0.3331635  0.3844459  )

     number of k points=    41
                       cart. coord. in units 2pi/alat
        k(    1) = (   0.0000000   0.0000000   0.0000000), wk =   0.0246914
        k(    2) = (   0.0000000   0.1283001   0.0000000), wk =   0.0493827
        k(    3) = (   0.0000000   0.2566001   0.0000000), wk =   0.0493827
        k(    4) = (   0.0000000   0.3849002   0.0000000), wk =   0.0493827
        k(    5) = (   0.0000000   0.5132002   0.0000000), wk =   0.0493827
        k(    6) = (   0.1111111   0.1924501   0.0000000), wk =   0.0493827
        k(    7) = (   0.1111111   0.3207501   0.0000000), wk =   0.0493827
        k(    8) = (   0.1111111   0.4490502   0.0000000), wk =   0.0493827
        k(    9) = (   0.1111111   0.5773503   0.0000000), wk =   0.0493827
        k(   10) = (   0.2222222   0.3849002   0.0000000), wk =   0.0493827
        k(   11) = (   0.2222222   0.5132002   0.0000000), wk =   0.0493827
        k(   12) = (   0.3333333   0.5773503   0.0000000), wk =   0.0493827
        k(   13) = (  -0.1111111   0.0641500   0.0000000), wk =   0.0493827
        k(   14) = (   0.1111111   0.0641500   0.0000000), wk =   0.0493827
        k(   15) = (  -0.2222222   0.1283001   0.0000000), wk =   0.0493827
        k(   16) = (   0.2222222   0.1283001   0.0000000), wk =   0.0493827
        k(   17) = (  -0.3333333   0.1924501   0.0000000), wk =   0.0493827
        k(   18) = (   0.3333333   0.1924501   0.0000000), wk =   0.0493827
        k(   19) = (  -0.4444444   0.2566001   0.0000000), wk =   0.0493827
        k(   20) = (   0.4444444   0.2566001   0.0000000), wk =   0.0493827
        k(   21) = (  -0.1111111   0.1924501   0.0000000), wk =   0.0493827
        k(   22) = (   0.2222222   0.0000000   0.0000000), wk =   0.0493827
        k(   23) = (  -0.1111111   0.3207501   0.0000000), wk =   0.0493827
        k(   24) = (  -0.2222222   0.2566001   0.0000000), wk =   0.0493827
        k(   25) = (   0.3333333   0.0641500   0.0000000), wk =   0.0493827
        k(   26) = (  -0.2222222  -0.2566001   0.0000000), wk =   0.0493827
        k(   27) = (   0.3333333  -0.0641500   0.0000000), wk =   0.0493827
        k(   28) = (  -0.1111111   0.4490502   0.0000000), wk =   0.0493827
        k(   29) = (  -0.3333333   0.3207501   0.0000000), wk =   0.0493827
        k(   30) = (   0.4444444   0.1283001   0.0000000), wk =   0.0493827
        k(   31) = (  -0.3333333  -0.3207501   0.0000000), wk =   0.0493827
        k(   32) = (   0.4444444  -0.1283001   0.0000000), wk =   0.0493827
        k(   33) = (  -0.4444444   0.3849002   0.0000000), wk =   0.0493827
        k(   34) = (   0.5555556   0.1924501   0.0000000), wk =   0.0493827
        k(   35) = (  -0.2222222   0.3849002   0.0000000), wk =   0.0493827
        k(   36) = (   0.4444444   0.0000000   0.0000000), wk =   0.0493827
        k(   37) = (  -0.2222222   0.5132002   0.0000000), wk =   0.0493827
        k(   38) = (  -0.3333333   0.4490502   0.0000000), wk =   0.0493827
        k(   39) = (   0.5555556   0.0641500   0.0000000), wk =   0.0493827
        k(   40) = (  -0.3333333  -0.4490502   0.0000000), wk =   0.0493827
        k(   41) = (   0.5555556  -0.0641500   0.0000000), wk =   0.0493827

                       cryst. coord.
        k(    1) = (   0.0000000   0.0000000   0.0000000), wk =   0.0246914
        k(    2) = (   0.0000000   0.1111111   0.0000000), wk =   0.0493827
        k(    3) = (   0.0000000   0.2222222   0.0000000), wk =   0.0493827
        k(    4) = (   0.0000000   0.3333333   0.0000000), wk =   0.0493827
        k(    5) = (   0.0000000   0.4444444   0.0000000), wk =   0.0493827
        k(    6) = (   0.1111111   0.1111111   0.0000000), wk =   0.0493827
        k(    7) = (   0.1111111   0.2222222   0.0000000), wk =   0.0493827
        k(    8) = (   0.1111111   0.3333333   0.0000000), wk =   0.0493827
        k(    9) = (   0.1111111   0.4444444   0.0000000), wk =   0.0493827
        k(   10) = (   0.2222222   0.2222222   0.0000000), wk =   0.0493827
        k(   11) = (   0.2222222   0.3333333   0.0000000), wk =   0.0493827
        k(   12) = (   0.3333333   0.3333333   0.0000000), wk =   0.0493827
        k(   13) = (  -0.1111111   0.1111111   0.0000000), wk =   0.0493827
        k(   14) = (   0.1111111   0.0000000   0.0000000), wk =   0.0493827
        k(   15) = (  -0.2222222   0.2222222   0.0000000), wk =   0.0493827
        k(   16) = (   0.2222222   0.0000000   0.0000000), wk =   0.0493827
        k(   17) = (  -0.3333333   0.3333333   0.0000000), wk =   0.0493827
        k(   18) = (   0.3333333   0.0000000   0.0000000), wk =   0.0493827
        k(   19) = (  -0.4444444   0.4444444   0.0000000), wk =   0.0493827
        k(   20) = (   0.4444444   0.0000000   0.0000000), wk =   0.0493827
        k(   21) = (  -0.1111111   0.2222222   0.0000000), wk =   0.0493827
        k(   22) = (   0.2222222  -0.1111111   0.0000000), wk =   0.0493827
        k(   23) = (  -0.1111111   0.3333333   0.0000000), wk =   0.0493827
        k(   24) = (  -0.2222222   0.3333333   0.0000000), wk =   0.0493827
        k(   25) = (   0.3333333  -0.1111111   0.0000000), wk =   0.0493827
        k(   26) = (  -0.2222222  -0.1111111   0.0000000), wk =   0.0493827
        k(   27) = (   0.3333333  -0.2222222   0.0000000), wk =   0.0493827
        k(   28) = (  -0.1111111   0.4444444   0.0000000), wk =   0.0493827
        k(   29) = (  -0.3333333   0.4444444   0.0000000), wk =   0.0493827
        k(   30) = (   0.4444444  -0.1111111   0.0000000), wk =   0.0493827
        k(   31) = (  -0.3333333  -0.1111111   0.0000000), wk =   0.0493827
        k(   32) = (   0.4444444  -0.3333333   0.0000000), wk =   0.0493827
        k(   33) = (  -0.4444444   0.5555556   0.0000000), wk =   0.0493827
        k(   34) = (   0.5555556  -0.1111111   0.0000000), wk =   0.0493827
        k(   35) = (  -0.2222222   0.4444444   0.0000000), wk =   0.0493827
        k(   36) = (   0.4444444  -0.2222222   0.0000000), wk =   0.0493827
        k(   37) = (  -0.2222222   0.5555556   0.0000000), wk =   0.0493827
        k(   38) = (  -0.3333333   0.5555556   0.0000000), wk =   0.0493827
        k(   39) = (   0.5555556  -0.2222222   0.0000000), wk =   0.0493827
        k(   40) = (  -0.3333333  -0.2222222   0.0000000), wk =   0.0493827
        k(   41) = (   0.5555556  -0.3333333   0.0000000), wk =   0.0493827

     Initial potential from superposition of free atoms

     starting charge   51.99700, renormalised to   52.00000

     negative rho (up, down):  5.872E-05 0.000E+00

     %%%%%%%%%%%%%%%%%%%%%%%%%%%%%%%%%%%%%%%%%%%%%%%%%%%%%%%%%%%%%%%%%%%%%%%%
     %                                                                      %
     % You are using vdW-DF, which was implemented by the Thonhauser group. %
     % Please cite the following two papers that made this development      %
     % possible and the two reviews that describe the various versions:     %
     %                                                                      %
     %   T. Thonhauser et al., PRL 115, 136402 (2015).                      %
     %   T. Thonhauser et al., PRB 76, 125112 (2007).                       %
     %   K. Berland et al., Rep. Prog. Phys. 78, 066501 (2015).             %
     %   D.C. Langreth et al., J. Phys.: Condens. Matter 21, 084203 (2009). %
     %                                                                      %
     %                                                                      %
     % If you are calculating the stress with vdW-DF, please also cite:     %
     %                                                                      %
     %   R. Sabatini et al., J. Phys.: Condens. Matter 24, 424209 (2012).   %
     %                                                                      %
     %%%%%%%%%%%%%%%%%%%%%%%%%%%%%%%%%%%%%%%%%%%%%%%%%%%%%%%%%%%%%%%%%%%%%%%%

     Carrying out vdW-DF run using the following parameters:
     Nqs    =  20  Npoints =  1024  r_max =  100.000
     q_mesh =  0.00001000  0.04494208  0.09755937  0.15916263
               0.23128650  0.31572767  0.41458969  0.53033537
               0.66584808  0.82450364  1.01025438  1.22772762
               1.48234092  1.78043706  2.12944203  2.53805004
               3.01644009  3.57652955  4.23227104  5.00000000

     Non-local corr. energy    =       0.58099172 Ry

     Starting wfcs are   36 randomized atomic wfcs

     Self-consistent Calculation

     iteration #  1     ecut=    60.00 Ry     beta= 0.70
     Davidson diagonalization with overlap

     ethr =  1.00E-02,  avg # of iterations =  2.0

[...]

     total energy              =    -369.18636788 Ry
     estimated scf accuracy    <       0.90523698 Ry

[...]

     total energy              =    -369.74221337 Ry
     estimated scf accuracy    <       0.00000567 Ry

     iteration # 13     ecut=    60.00 Ry     beta= 0.70
     Davidson diagonalization with overlap

     ethr =  1.09E-08,  avg # of iterations =  2.9

     Non-local corr. energy    =       0.57876865 Ry

     End of self-consistent calculation

          k = 0.0000 0.0000 0.0000 ( 11863 PWs)   bands (ev):

   -59.0117 -59.0112 -33.1785 -33.1777 -32.9277 -32.9274 -32.9268 -32.9265
   -12.4318 -12.2951 -11.1872 -10.9755  -4.1628  -3.6471  -0.7441  -0.7422
    -0.7382  -0.7363  -0.6405   0.3672   0.3754   0.3886   0.3969   0.4084
     1.4623   2.1484

     occupation numbers
     1.0000   1.0000   1.0000   1.0000   1.0000   1.0000   1.0000   1.0000
     1.0000   1.0000   1.0000   1.0000   1.0000   1.0000   1.0000   1.0000
     1.0000   1.0000   1.0000   1.0000   1.0000   1.0000   1.0000   1.0000
     1.0000   1.0000

[...]

          k =-0.1111 0.0642 0.0000 ( 11813 PWs)   bands (ev):

[...]

          k =-0.3333-0.4491 0.0000 ( 11731 PWs)   bands (ev):

[...]

          k = 0.5556-0.0642 0.0000 ( 11731 PWs)   bands (ev):

   -58.9658 -58.9653 -33.2768 -33.2764 -33.1190 -33.1185 -33.0893 -33.0888
   -10.2843 -10.2309 -10.1877 -10.1546  -3.4901  -3.4050  -3.3894  -3.3315
    -2.1489  -1.9305  -1.5127  -1.2960  -1.1451  -1.0267  -0.2485  -0.0209
     1.4462   1.5261

     occupation numbers
     1.0000   1.0000   1.0000   1.0000   1.0000   1.0000   1.0000   1.0000
     1.0000   1.0000   1.0000   1.0000   1.0000   1.0000   1.0000   1.0000
     1.0000   1.0000   1.0000   1.0000   1.0000   1.0000   1.0000   1.0000
     1.0000   1.0000

     highest occupied level (ev):     2.1484

!    total energy              =    -369.74221312 Ry
     estimated scf accuracy    <       0.00000090 Ry

     The total energy is the sum of the following terms:
     one-electron contribution =   -2929.00659063 Ry
     hartree contribution      =    1470.56761114 Ry
     xc contribution           =     -66.68376271 Ry
     ewald contribution        =    1155.38052908 Ry

     convergence has been achieved in  13 iterations

     Writing output data file ./tmp/2L-MoS2.save/

     General routines

     Parallel routines

   This run was terminated on:  13:25:57  15Apr2024

   JOB DONE.