     Program PWSCF v.6.8 starts on 15Apr2024 at 13:41:41

     R & G space division:  proc/nbgrp/npool/nimage =      32

     Reading input from 1L-MoS2-scf-SOC.in

     Current dimensions of program PWSCF are:
     Max number of different atomic species (ntypx) = 10
     Max number of k-points (npk) =  40000
     Max angular momentum in pseudopotentials (lmaxx) =  4

     Using Slab Decomposition

     bravais-lattice index     =            4
     lattice parameter (alat)  =       5.9526  a.u.
     unit-cell volume          =    1055.4065 (a.u.)^3
     number of atoms/cell      =            3
     number of atomic types    =            2
     number of electrons       =        26.00
     number of Kohn-Sham states=           26
     kinetic-energy cutoff     =      70.0000  Ry
     charge density cutoff     =     280.0000  Ry
     scf convergence threshold =      1.0E-06
     mixing beta               =       0.7000
     number of iterations used =            8  plain     mixing
     Exchange-correlation= PBE
                           (   1   4   3   4   0   0   0)
     Non magnetic calculation with spin-orbit

     celldm(1)=   5.952637  celldm(2)=   0.000000  celldm(3)=   5.777779
     celldm(4)=   0.000000  celldm(5)=   0.000000  celldm(6)=   0.000000

     crystal axes: (cart. coord. in units of alat)
               a(1) = (   1.000000   0.000000   0.000000 )
               a(2) = (  -0.500000   0.866025   0.000000 )
               a(3) = (   0.000000   0.000000   5.777779 )

     reciprocal axes: (cart. coord. in units 2 pi/alat)
               b(1) = (  1.000000  0.577350  0.000000 )
               b(2) = (  0.000000  1.154701  0.000000 )
               b(3) = (  0.000000  0.000000  0.173077 )

     PseudoPot. # 1 for S  read from file:
     /exports/commonscratch/sgrillo/MAURIZIA/MoS2/pseudos/S_FR.upf
     MD5 check sum: a7319d53700e7dada26ada44d0048388
     Pseudo is Norm-conserving + core correction, Zval =  6.0
     Generated using ONCVPSP code by D. R. Hamann
     Using radial grid of 1146 points, 10 beta functions with:
                l(1) =   0
                l(2) =   0
                l(3) =   1
                l(4) =   1
                l(5) =   1
                l(6) =   1
                l(7) =   2
                l(8) =   2
                l(9) =   2
               l(10) =   2

     PseudoPot. # 2 for Mo read from file:
     /exports/commonscratch/sgrillo/MAURIZIA/MoS2/pseudos/Mo_FR.upf
     MD5 check sum: 4e1c3579de4f68baf863f15f5be96aa1
     Pseudo is Norm-conserving + core correction, Zval = 14.0
     Generated using ONCVPSP code by D. R. Hamann
     Using radial grid of 1640 points, 10 beta functions with:
                l(1) =   0
                l(2) =   0
                l(3) =   1
                l(4) =   1
                l(5) =   1
                l(6) =   1
                l(7) =   2
                l(8) =   2
                l(9) =   2
               l(10) =   2

     atomic species   valence    mass     pseudopotential
        S              6.00    32.06500     S ( 1.00)
        Mo            14.00    95.94000     Mo( 1.00)

     No symmetry found

                                    s                        frac. trans.

      isym =  1     identity

 cryst.   s( 1) = (     1          0          0      )
                  (     0          1          0      )
                  (     0          0          1      )

 cart.    s( 1) = (  1.0000000  0.0000000  0.0000000 )
                  (  0.0000000  1.0000000  0.0000000 )
                  (  0.0000000  0.0000000  1.0000000 )

     double point group C_1 (1)
     there are  2 classes and  1 irreducible representations
     the character table:

       E     -E

G_2    1.00 -1.00

     the symmetry operations in each class and the name of the first element:

     E             1
          identity
     -E           -1
          identity E

   Cartesian axes

     site n.     atom                  positions (alat units)
         1           Mo  tau(   1) = (   0.5024625   0.2900969   0.4999485  )
         2           S   tau(   2) = (   0.0000000   0.5801937   0.0008976  )
         3           S   tau(   3) = (   0.0000000   0.5801937   0.9989872  )

   Crystallographic axes

     site n.     atom                  positions (cryst. coord.)
         1           Mo  tau(   1) = (  0.6699500  0.3349750  0.0865295  )
         2           S   tau(   2) = (  0.3349750  0.6699500  0.0001554  )
         3           S   tau(   3) = (  0.3349750  0.6699500  0.1729016  )

     number of k points=    41
                       cart. coord. in units 2pi/alat
        k(    1) = (   0.0000000   0.0000000   0.0000000), wk =   0.0123457
        k(    2) = (   0.0000000   0.1283001   0.0000000), wk =   0.0246914
        k(    3) = (   0.0000000   0.2566001   0.0000000), wk =   0.0246914
        k(    4) = (   0.0000000   0.3849002   0.0000000), wk =   0.0246914
        k(    5) = (   0.0000000   0.5132002   0.0000000), wk =   0.0246914
        k(    6) = (   0.1111111   0.1924501   0.0000000), wk =   0.0246914
        k(    7) = (   0.1111111   0.3207501   0.0000000), wk =   0.0246914
        k(    8) = (   0.1111111   0.4490502   0.0000000), wk =   0.0246914
        k(    9) = (   0.1111111   0.5773503   0.0000000), wk =   0.0246914
        k(   10) = (   0.2222222   0.3849002   0.0000000), wk =   0.0246914
        k(   11) = (   0.2222222   0.5132002   0.0000000), wk =   0.0246914
        k(   12) = (   0.3333333   0.5773503   0.0000000), wk =   0.0246914
        k(   13) = (  -0.1111111   0.0641500   0.0000000), wk =   0.0246914
        k(   14) = (   0.1111111   0.0641500   0.0000000), wk =   0.0246914
        k(   15) = (  -0.2222222   0.1283001   0.0000000), wk =   0.0246914
        k(   16) = (   0.2222222   0.1283001   0.0000000), wk =   0.0246914
        k(   17) = (  -0.3333333   0.1924501   0.0000000), wk =   0.0246914
        k(   18) = (   0.3333333   0.1924501   0.0000000), wk =   0.0246914
        k(   19) = (  -0.4444444   0.2566001   0.0000000), wk =   0.0246914
        k(   20) = (   0.4444444   0.2566001   0.0000000), wk =   0.0246914
        k(   21) = (  -0.1111111   0.1924501   0.0000000), wk =   0.0246914
        k(   22) = (   0.2222222   0.0000000   0.0000000), wk =   0.0246914
        k(   23) = (  -0.1111111   0.3207501   0.0000000), wk =   0.0246914
        k(   24) = (  -0.2222222   0.2566001   0.0000000), wk =   0.0246914
        k(   25) = (   0.3333333   0.0641500   0.0000000), wk =   0.0246914
        k(   26) = (  -0.2222222  -0.2566001   0.0000000), wk =   0.0246914
        k(   27) = (   0.3333333  -0.0641500   0.0000000), wk =   0.0246914
        k(   28) = (  -0.1111111   0.4490502   0.0000000), wk =   0.0246914
        k(   29) = (  -0.3333333   0.3207501   0.0000000), wk =   0.0246914
        k(   30) = (   0.4444444   0.1283001   0.0000000), wk =   0.0246914
        k(   31) = (  -0.3333333  -0.3207501   0.0000000), wk =   0.0246914
        k(   32) = (   0.4444444  -0.1283001   0.0000000), wk =   0.0246914
        k(   33) = (  -0.4444444   0.3849002   0.0000000), wk =   0.0246914
        k(   34) = (   0.5555556   0.1924501   0.0000000), wk =   0.0246914
        k(   35) = (  -0.2222222   0.3849002   0.0000000), wk =   0.0246914
        k(   36) = (   0.4444444   0.0000000   0.0000000), wk =   0.0246914
        k(   37) = (  -0.2222222   0.5132002   0.0000000), wk =   0.0246914
        k(   38) = (  -0.3333333   0.4490502   0.0000000), wk =   0.0246914
        k(   39) = (   0.5555556   0.0641500   0.0000000), wk =   0.0246914
        k(   40) = (  -0.3333333  -0.4490502   0.0000000), wk =   0.0246914
        k(   41) = (   0.5555556  -0.0641500   0.0000000), wk =   0.0246914

                       cryst. coord.
        k(    1) = (   0.0000000   0.0000000   0.0000000), wk =   0.0123457
        k(    2) = (   0.0000000   0.1111111   0.0000000), wk =   0.0246914
        k(    3) = (   0.0000000   0.2222222   0.0000000), wk =   0.0246914
        k(    4) = (   0.0000000   0.3333333   0.0000000), wk =   0.0246914
        k(    5) = (   0.0000000   0.4444444   0.0000000), wk =   0.0246914
        k(    6) = (   0.1111111   0.1111111   0.0000000), wk =   0.0246914
        k(    7) = (   0.1111111   0.2222222   0.0000000), wk =   0.0246914
        k(    8) = (   0.1111111   0.3333333   0.0000000), wk =   0.0246914
        k(    9) = (   0.1111111   0.4444444   0.0000000), wk =   0.0246914
        k(   10) = (   0.2222222   0.2222222   0.0000000), wk =   0.0246914
        k(   11) = (   0.2222222   0.3333333   0.0000000), wk =   0.0246914
        k(   12) = (   0.3333333   0.3333333   0.0000000), wk =   0.0246914
        k(   13) = (  -0.1111111   0.1111111   0.0000000), wk =   0.0246914
        k(   14) = (   0.1111111   0.0000000   0.0000000), wk =   0.0246914
        k(   15) = (  -0.2222222   0.2222222   0.0000000), wk =   0.0246914
        k(   16) = (   0.2222222   0.0000000   0.0000000), wk =   0.0246914
        k(   17) = (  -0.3333333   0.3333333   0.0000000), wk =   0.0246914
        k(   18) = (   0.3333333   0.0000000   0.0000000), wk =   0.0246914
        k(   19) = (  -0.4444444   0.4444444   0.0000000), wk =   0.0246914
        k(   20) = (   0.4444444   0.0000000   0.0000000), wk =   0.0246914
        k(   21) = (  -0.1111111   0.2222222   0.0000000), wk =   0.0246914
        k(   22) = (   0.2222222  -0.1111111   0.0000000), wk =   0.0246914
        k(   23) = (  -0.1111111   0.3333333   0.0000000), wk =   0.0246914
        k(   24) = (  -0.2222222   0.3333333   0.0000000), wk =   0.0246914
        k(   25) = (   0.3333333  -0.1111111   0.0000000), wk =   0.0246914
        k(   26) = (  -0.2222222  -0.1111111   0.0000000), wk =   0.0246914
        k(   27) = (   0.3333333  -0.2222222   0.0000000), wk =   0.0246914
        k(   28) = (  -0.1111111   0.4444444   0.0000000), wk =   0.0246914
        k(   29) = (  -0.3333333   0.4444444   0.0000000), wk =   0.0246914
        k(   30) = (   0.4444444  -0.1111111   0.0000000), wk =   0.0246914
        k(   31) = (  -0.3333333  -0.1111111   0.0000000), wk =   0.0246914
        k(   32) = (   0.4444444  -0.3333333   0.0000000), wk =   0.0246914
        k(   33) = (  -0.4444444   0.5555556   0.0000000), wk =   0.0246914
        k(   34) = (   0.5555556  -0.1111111   0.0000000), wk =   0.0246914
        k(   35) = (  -0.2222222   0.4444444   0.0000000), wk =   0.0246914
        k(   36) = (   0.4444444  -0.2222222   0.0000000), wk =   0.0246914
        k(   37) = (  -0.2222222   0.5555556   0.0000000), wk =   0.0246914
        k(   38) = (  -0.3333333   0.5555556   0.0000000), wk =   0.0246914
        k(   39) = (   0.5555556  -0.2222222   0.0000000), wk =   0.0246914
        k(   40) = (  -0.3333333  -0.2222222   0.0000000), wk =   0.0246914
        k(   41) = (   0.5555556  -0.3333333   0.0000000), wk =   0.0246914

     Initial potential from superposition of free atoms

     starting charge   25.99850, renormalised to   26.00000

     negative rho (up, down):  3.545E-05 0.000E+00
     Starting wfcs are   36 randomized atomic wfcs

     Self-consistent Calculation

     iteration #  1     ecut=    70.00 Ry     beta= 0.70
     Davidson diagonalization with overlap

     ethr =  1.00E-02,  avg # of iterations =  2.0

     total energy              =    -184.61346946 Ry
     estimated scf accuracy    <       0.44902874 Ry

[...]

     total energy              =    -184.88682864 Ry
     estimated scf accuracy    <       0.00001095 Ry

     iteration # 11     ecut=    70.00 Ry     beta= 0.70
     Davidson diagonalization with overlap

     ethr =  4.21E-08,  avg # of iterations =  4.3

     End of self-consistent calculation

          k = 0.0000 0.0000 0.0000 ( 10393 PWs)   bands (ev):

   -61.1640 -61.1640 -36.8889 -36.8889 -34.4696 -34.4696 -34.2932 -34.2932
   -14.5195 -14.5195 -13.2247 -13.2247  -6.0353  -6.0353  -2.9362  -2.9362
    -2.8667  -2.8667  -2.2228  -2.2228  -1.8353  -1.8353  -1.7178  -1.7178
    -0.4529  -0.4529

     occupation numbers
     1.0000   1.0000   1.0000   1.0000   1.0000   1.0000   1.0000   1.0000
     1.0000   1.0000   1.0000   1.0000   1.0000   1.0000   1.0000   1.0000
     1.0000   1.0000   1.0000   1.0000   1.0000   1.0000   1.0000   1.0000
     1.0000   1.0000

[...]

          k =-0.1111 0.0642 0.0000 ( 10363 PWs)   bands (ev):

[...]

          k =-0.3333-0.4491 0.0000 ( 10460 PWs)   bands (ev):

[...]

          k = 0.5556-0.0642 0.0000 ( 10460 PWs)   bands (ev):

   -61.1182 -61.1182 -37.0261 -37.0051 -34.6231 -34.5896 -34.4855 -34.4815
   -12.4429 -12.3902 -12.3211 -12.3170  -5.5915  -5.5814  -5.5451  -5.5239
    -4.1817  -4.1808  -3.5295  -3.5122  -3.3158  -3.2745  -2.2675  -2.2655
    -0.6936  -0.5743

     occupation numbers
     1.0000   1.0000   1.0000   1.0000   1.0000   1.0000   1.0000   1.0000
     1.0000   1.0000   1.0000   1.0000   1.0000   1.0000   1.0000   1.0000
     1.0000   1.0000   1.0000   1.0000   1.0000   1.0000   1.0000   1.0000
     1.0000   1.0000

     highest occupied level (ev):    -0.2706

!    total energy              =    -184.88683065 Ry
     estimated scf accuracy    <       0.00000081 Ry

     The total energy is the sum of the following terms:
     one-electron contribution =    -985.66632056 Ry
     hartree contribution      =     493.80052263 Ry
     xc contribution           =     -33.37834863 Ry
     ewald contribution        =     340.35731592 Ry

     convergence has been achieved in  11 iterations

     Writing output data file ./tmp/1L-MoS2.save/

     General routines

     Parallel routines

   This run was terminated on:  13:42:27  15Apr2024

   JOB DONE.