     Program PWSCF v.6.8 starts on 15Apr2024 at 14:13:36

     R & G space division:  proc/nbgrp/npool/nimage =      32

     Reading input from bulk-MoS2-scf.in

     Current dimensions of program PWSCF are:
     Max number of different atomic species (ntypx) = 10
     Max number of k-points (npk) =  40000
     Max angular momentum in pseudopotentials (lmaxx) =  4

     IMPORTANT: XC functional enforced from input :
     Exchange-correlation= VDW-DF2-B86R
                           (   1   4  26   0   2   0   0)
     Any further DFT definition will be discarded
     Please, verify this is what you really want

     Using Slab Decomposition

     bravais-lattice index     =            4
     lattice parameter (alat)  =       5.9526  a.u.
     unit-cell volume          =     717.2760 (a.u.)^3
     number of atoms/cell      =            6
     number of atomic types    =            2
     number of electrons       =        52.00
     number of Kohn-Sham states=           26
     kinetic-energy cutoff     =      70.0000  Ry
     charge density cutoff     =     280.0000  Ry
     scf convergence threshold =      1.0E-06
     mixing beta               =       0.7000
     number of iterations used =            8  plain     mixing
     Exchange-correlation= VDW-DF2-B86R
                           (   1   4  26   0   2   0   0)

     celldm(1)=   5.952637  celldm(2)=   0.000000  celldm(3)=   3.926697
     celldm(4)=   0.000000  celldm(5)=   0.000000  celldm(6)=   0.000000

     crystal axes: (cart. coord. in units of alat)
               a(1) = (   1.000000   0.000000   0.000000 )
               a(2) = (  -0.500000   0.866025   0.000000 )
               a(3) = (   0.000000   0.000000   3.926697 )

     reciprocal axes: (cart. coord. in units 2 pi/alat)
               b(1) = (  1.000000  0.577350  0.000000 )
               b(2) = (  0.000000  1.154701  0.000000 )
               b(3) = (  0.000000  0.000000  0.254667 )

     PseudoPot. # 1 for S  read from file:
     /exports/commonscratch/sgrillo/MAURIZIA/MoS2/pseudos/S.upf
     MD5 check sum: b72b6a9ca752e39de1a6cc592280dae2
     Pseudo is Norm-conserving + core correction, Zval =  6.0
     Generated using ONCVPSP code by D. R. Hamann
     Using radial grid of 1148 points,  6 beta functions with:
                l(1) =   0
                l(2) =   0
                l(3) =   1
                l(4) =   1
                l(5) =   2
                l(6) =   2

     PseudoPot. # 2 for Mo read from file:
     /exports/commonscratch/sgrillo/MAURIZIA/MoS2/pseudos/Mo.upf
     MD5 check sum: 7ca7a9feba7bf08d88d14bc7fbf60c1e
     Pseudo is Norm-conserving + core correction, Zval = 14.0
     Generated using ONCVPSP code by D. R. Hamann
     Using radial grid of 1640 points,  6 beta functions with:
                l(1) =   0
                l(2) =   0
                l(3) =   1
                l(4) =   1
                l(5) =   2
                l(6) =   2

     atomic species   valence    mass     pseudopotential
        S              6.00    32.06500     S ( 1.00)
        Mo            14.00    95.94000     Mo( 1.00)

     No symmetry found

                                    s                        frac. trans.

      isym =  1     identity

 cryst.   s( 1) = (     1          0          0      )
                  (     0          1          0      )
                  (     0          0          1      )

 cart.    s( 1) = (  1.0000000  0.0000000  0.0000000 )
                  (  0.0000000  1.0000000  0.0000000 )
                  (  0.0000000  0.0000000  1.0000000 )

     point group C_1 (1)
     there are  1 classes
     the character table:

       E
A      1.00

     the symmetry operations in each class and the name of the first element:

     E        1
          identity

   Cartesian axes

     site n.     atom                  positions (alat units)
         1           Mo  tau(   1) = (   0.5030286   0.2904237   0.4209605  )
         2           S   tau(   2) = (   0.0000000   0.5808475  -0.0777423  )
         3           S   tau(   3) = (   0.0000000   0.5808475   0.9196572  )
         4           Mo  tau(   4) = (   0.0000000   0.5808475   2.3842486  )
         5           S   tau(   5) = (   0.5030286   0.2904237   1.8855498  )
         6           S   tau(   6) = (   0.5030286   0.2904237   2.8829507  )

   Crystallographic axes

     site n.     atom                  positions (cryst. coord.)
         1           Mo  tau(   1) = (  0.6707049  0.3353524  0.1072047  )
         2           S   tau(   2) = (  0.3353524  0.6707049 -0.0197984  )
         3           S   tau(   3) = (  0.3353524  0.6707049  0.2342063  )
         4           Mo  tau(   4) = (  0.3353524  0.6707049  0.6071893  )
         5           S   tau(   5) = (  0.6707049  0.3353524  0.4801872  )
         6           S   tau(   6) = (  0.6707049  0.3353524  0.7341923  )

     number of k points=   244
                       cart. coord. in units 2pi/alat
        k(    1) = (   0.0000000   0.0000000   0.0000000), wk =   0.0041152
        k(    2) = (   0.0000000   0.0000000   0.0424445), wk =   0.0082305
        k(    3) = (   0.0000000   0.0000000   0.0848890), wk =   0.0082305
        k(    4) = (   0.0000000   0.0000000  -0.1273335), wk =   0.0041152
        k(    5) = (   0.0000000   0.1283001   0.0000000), wk =   0.0082305
        k(    6) = (   0.0000000   0.1283001   0.0424445), wk =   0.0082305
        k(    7) = (   0.0000000   0.1283001   0.0848890), wk =   0.0082305
        k(    8) = (   0.0000000   0.1283001  -0.1273335), wk =   0.0082305
        k(    9) = (   0.0000000   0.2566001   0.0000000), wk =   0.0082305
        k(   10) = (   0.0000000   0.2566001   0.0424445), wk =   0.0082305
        k(   11) = (   0.0000000   0.2566001   0.0848890), wk =   0.0082305
        k(   12) = (   0.0000000   0.2566001  -0.1273335), wk =   0.0082305
        k(   13) = (   0.0000000   0.3849002   0.0000000), wk =   0.0082305
        k(   14) = (   0.0000000   0.3849002   0.0424445), wk =   0.0082305
        k(   15) = (   0.0000000   0.3849002   0.0848890), wk =   0.0082305
        k(   16) = (   0.0000000   0.3849002  -0.1273335), wk =   0.0082305
        k(   17) = (   0.0000000   0.5132002   0.0000000), wk =   0.0082305
        k(   18) = (   0.0000000   0.5132002   0.0424445), wk =   0.0082305
        k(   19) = (   0.0000000   0.5132002   0.0848890), wk =   0.0082305
        k(   20) = (   0.0000000   0.5132002  -0.1273335), wk =   0.0082305
        k(   21) = (   0.1111111   0.1924501   0.0000000), wk =   0.0082305
        k(   22) = (   0.1111111   0.1924501   0.0424445), wk =   0.0082305
        k(   23) = (   0.1111111   0.1924501   0.0848890), wk =   0.0082305
        k(   24) = (   0.1111111   0.1924501  -0.1273335), wk =   0.0082305
        k(   25) = (   0.1111111   0.3207501   0.0000000), wk =   0.0082305
        k(   26) = (   0.1111111   0.3207501   0.0424445), wk =   0.0082305
        k(   27) = (   0.1111111   0.3207501   0.0848890), wk =   0.0082305
        k(   28) = (   0.1111111   0.3207501  -0.1273335), wk =   0.0082305
        k(   29) = (   0.1111111   0.4490502   0.0000000), wk =   0.0082305
        k(   30) = (   0.1111111   0.4490502   0.0424445), wk =   0.0082305
        k(   31) = (   0.1111111   0.4490502   0.0848890), wk =   0.0082305
        k(   32) = (   0.1111111   0.4490502  -0.1273335), wk =   0.0082305
        k(   33) = (   0.1111111   0.5773503   0.0000000), wk =   0.0082305
        k(   34) = (   0.1111111   0.5773503   0.0424445), wk =   0.0082305
        k(   35) = (   0.1111111   0.5773503   0.0848890), wk =   0.0082305
        k(   36) = (   0.1111111   0.5773503  -0.1273335), wk =   0.0082305
        k(   37) = (   0.2222222   0.3849002   0.0000000), wk =   0.0082305
        k(   38) = (   0.2222222   0.3849002   0.0424445), wk =   0.0082305
        k(   39) = (   0.2222222   0.3849002   0.0848890), wk =   0.0082305
        k(   40) = (   0.2222222   0.3849002  -0.1273335), wk =   0.0082305
        k(   41) = (   0.2222222   0.5132002   0.0000000), wk =   0.0082305
        k(   42) = (   0.2222222   0.5132002   0.0424445), wk =   0.0082305
        k(   43) = (   0.2222222   0.5132002   0.0848890), wk =   0.0082305
        k(   44) = (   0.2222222   0.5132002  -0.1273335), wk =   0.0082305
        k(   45) = (   0.3333333   0.5773503   0.0000000), wk =   0.0082305
        k(   46) = (   0.3333333   0.5773503   0.0424445), wk =   0.0082305
        k(   47) = (   0.3333333   0.5773503   0.0848890), wk =   0.0082305
        k(   48) = (   0.3333333   0.5773503  -0.1273335), wk =   0.0082305
        k(   49) = (  -0.1111111   0.0641500   0.0000000), wk =   0.0082305
        k(   50) = (   0.1111111   0.0641500   0.0000000), wk =   0.0082305
        k(   51) = (   0.0000000  -0.1283001   0.0424445), wk =   0.0082305
        k(   52) = (  -0.1111111   0.0641500   0.0424445), wk =   0.0082305
        k(   53) = (   0.1111111   0.0641500   0.0424445), wk =   0.0082305
        k(   54) = (  -0.1111111  -0.0641500   0.0424445), wk =   0.0082305
        k(   55) = (   0.1111111  -0.0641500   0.0424445), wk =   0.0082305
        k(   56) = (   0.0000000  -0.1283001   0.0848890), wk =   0.0082305
        k(   57) = (  -0.1111111   0.0641500   0.0848890), wk =   0.0082305
        k(   58) = (   0.1111111   0.0641500   0.0848890), wk =   0.0082305
        k(   59) = (  -0.1111111  -0.0641500   0.0848890), wk =   0.0082305
        k(   60) = (   0.1111111  -0.0641500   0.0848890), wk =   0.0082305
[...]
        k(  230) = (  -0.3333333   0.4490502   0.0848890), wk =   0.0082305
        k(  231) = (   0.5555556   0.0641500   0.0848890), wk =   0.0082305
        k(  232) = (  -0.5555556  -0.0641500   0.0848890), wk =   0.0082305
        k(  233) = (   0.3333333  -0.4490502   0.0848890), wk =   0.0082305
        k(  234) = (  -0.3333333  -0.4490502  -0.0848890), wk =   0.0082305
        k(  235) = (   0.5555556  -0.0641500  -0.0848890), wk =   0.0082305
        k(  236) = (  -0.5555556   0.0641500  -0.0848890), wk =   0.0082305
        k(  237) = (   0.3333333   0.4490502  -0.0848890), wk =   0.0082305
        k(  238) = (  -0.2222222   0.5132002   0.1273335), wk =   0.0082305
        k(  239) = (  -0.3333333   0.4490502  -0.1273335), wk =   0.0082305
        k(  240) = (   0.5555556   0.0641500  -0.1273335), wk =   0.0082305
        k(  241) = (  -0.3333333  -0.4490502   0.1273335), wk =   0.0082305
        k(  242) = (   0.5555556  -0.0641500   0.1273335), wk =   0.0082305
        k(  243) = (  -0.3333333  -0.5773503   0.0424445), wk =   0.0082305
        k(  244) = (  -0.3333333  -0.5773503   0.0848890), wk =   0.0082305

                       cryst. coord.
        k(    1) = (   0.0000000   0.0000000   0.0000000), wk =   0.0041152
        k(    2) = (   0.0000000   0.0000000   0.1666667), wk =   0.0082305
        k(    3) = (   0.0000000   0.0000000   0.3333333), wk =   0.0082305
        k(    4) = (   0.0000000   0.0000000  -0.5000000), wk =   0.0041152
        k(    5) = (   0.0000000   0.1111111   0.0000000), wk =   0.0082305
        k(    6) = (   0.0000000   0.1111111   0.1666667), wk =   0.0082305
        k(    7) = (   0.0000000   0.1111111   0.3333333), wk =   0.0082305
        k(    8) = (   0.0000000   0.1111111  -0.5000000), wk =   0.0082305
        k(    9) = (   0.0000000   0.2222222   0.0000000), wk =   0.0082305
        k(   10) = (   0.0000000   0.2222222   0.1666667), wk =   0.0082305
        k(   11) = (   0.0000000   0.2222222   0.3333333), wk =   0.0082305
        k(   12) = (   0.0000000   0.2222222  -0.5000000), wk =   0.0082305
        k(   13) = (   0.0000000   0.3333333   0.0000000), wk =   0.0082305
        k(   14) = (   0.0000000   0.3333333   0.1666667), wk =   0.0082305
        k(   15) = (   0.0000000   0.3333333   0.3333333), wk =   0.0082305
        k(   16) = (   0.0000000   0.3333333  -0.5000000), wk =   0.0082305
        k(   17) = (   0.0000000   0.4444444   0.0000000), wk =   0.0082305
        k(   18) = (   0.0000000   0.4444444   0.1666667), wk =   0.0082305
        k(   19) = (   0.0000000   0.4444444   0.3333333), wk =   0.0082305
        k(   20) = (   0.0000000   0.4444444  -0.5000000), wk =   0.0082305
        k(   21) = (   0.1111111   0.1111111   0.0000000), wk =   0.0082305
        k(   22) = (   0.1111111   0.1111111   0.1666667), wk =   0.0082305
        k(   23) = (   0.1111111   0.1111111   0.3333333), wk =   0.0082305
        k(   24) = (   0.1111111   0.1111111  -0.5000000), wk =   0.0082305
        k(   25) = (   0.1111111   0.2222222   0.0000000), wk =   0.0082305
        k(   26) = (   0.1111111   0.2222222   0.1666667), wk =   0.0082305
        k(   27) = (   0.1111111   0.2222222   0.3333333), wk =   0.0082305
        k(   28) = (   0.1111111   0.2222222  -0.5000000), wk =   0.0082305
        k(   29) = (   0.1111111   0.3333333   0.0000000), wk =   0.0082305
        k(   30) = (   0.1111111   0.3333333   0.1666667), wk =   0.0082305
        k(   31) = (   0.1111111   0.3333333   0.3333333), wk =   0.0082305
        k(   32) = (   0.1111111   0.3333333  -0.5000000), wk =   0.0082305
        k(   33) = (   0.1111111   0.4444444   0.0000000), wk =   0.0082305
        k(   34) = (   0.1111111   0.4444444   0.1666667), wk =   0.0082305
        k(   35) = (   0.1111111   0.4444444   0.3333333), wk =   0.0082305
        k(   36) = (   0.1111111   0.4444444  -0.5000000), wk =   0.0082305
        k(   37) = (   0.2222222   0.2222222   0.0000000), wk =   0.0082305
        k(   38) = (   0.2222222   0.2222222   0.1666667), wk =   0.0082305
        k(   39) = (   0.2222222   0.2222222   0.3333333), wk =   0.0082305
        k(   40) = (   0.2222222   0.2222222  -0.5000000), wk =   0.0082305
        k(   41) = (   0.2222222   0.3333333   0.0000000), wk =   0.0082305
        k(   42) = (   0.2222222   0.3333333   0.1666667), wk =   0.0082305
        k(   43) = (   0.2222222   0.3333333   0.3333333), wk =   0.0082305
        k(   44) = (   0.2222222   0.3333333  -0.5000000), wk =   0.0082305
        k(   45) = (   0.3333333   0.3333333   0.0000000), wk =   0.0082305
        k(   46) = (   0.3333333   0.3333333   0.1666667), wk =   0.0082305
        k(   47) = (   0.3333333   0.3333333   0.3333333), wk =   0.0082305
        k(   48) = (   0.3333333   0.3333333  -0.5000000), wk =   0.0082305
        k(   49) = (  -0.1111111   0.1111111   0.0000000), wk =   0.0082305
        k(   50) = (   0.1111111   0.0000000   0.0000000), wk =   0.0082305
        k(   51) = (   0.0000000  -0.1111111   0.1666667), wk =   0.0082305
        k(   52) = (  -0.1111111   0.1111111   0.1666667), wk =   0.0082305
        k(   53) = (   0.1111111   0.0000000   0.1666667), wk =   0.0082305
        k(   54) = (  -0.1111111   0.0000000   0.1666667), wk =   0.0082305
        k(   55) = (   0.1111111  -0.1111111   0.1666667), wk =   0.0082305
        k(   56) = (   0.0000000  -0.1111111   0.3333333), wk =   0.0082305
        k(   57) = (  -0.1111111   0.1111111   0.3333333), wk =   0.0082305
        k(   58) = (   0.1111111   0.0000000   0.3333333), wk =   0.0082305
        k(   59) = (  -0.1111111   0.0000000   0.3333333), wk =   0.0082305
        k(   60) = (   0.1111111  -0.1111111   0.3333333), wk =   0.0082305
[...]
        k(  230) = (  -0.3333333   0.5555556   0.3333333), wk =   0.0082305
        k(  231) = (   0.5555556  -0.2222222   0.3333333), wk =   0.0082305
        k(  232) = (  -0.5555556   0.2222222   0.3333333), wk =   0.0082305
        k(  233) = (   0.3333333  -0.5555556   0.3333333), wk =   0.0082305
        k(  234) = (  -0.3333333  -0.2222222  -0.3333333), wk =   0.0082305
        k(  235) = (   0.5555556  -0.3333333  -0.3333333), wk =   0.0082305
        k(  236) = (  -0.5555556   0.3333333  -0.3333333), wk =   0.0082305
        k(  237) = (   0.3333333   0.2222222  -0.3333333), wk =   0.0082305
        k(  238) = (  -0.2222222   0.5555556   0.5000000), wk =   0.0082305
        k(  239) = (  -0.3333333   0.5555556  -0.5000000), wk =   0.0082305
        k(  240) = (   0.5555556  -0.2222222  -0.5000000), wk =   0.0082305
        k(  241) = (  -0.3333333  -0.2222222   0.5000000), wk =   0.0082305
        k(  242) = (   0.5555556  -0.3333333   0.5000000), wk =   0.0082305
        k(  243) = (  -0.3333333  -0.3333333   0.1666667), wk =   0.0082305
        k(  244) = (  -0.3333333  -0.3333333   0.3333333), wk =   0.0082305

     Initial potential from superposition of free atoms

     starting charge   51.99700, renormalised to   52.00000

     %%%%%%%%%%%%%%%%%%%%%%%%%%%%%%%%%%%%%%%%%%%%%%%%%%%%%%%%%%%%%%%%%%%%%%%%
     %                                                                      %
     % You are using vdW-DF, which was implemented by the Thonhauser group. %
     % Please cite the following two papers that made this development      %
     % possible and the two reviews that describe the various versions:     %
     %                                                                      %
     %   T. Thonhauser et al., PRL 115, 136402 (2015).                      %
     %   T. Thonhauser et al., PRB 76, 125112 (2007).                       %
     %   K. Berland et al., Rep. Prog. Phys. 78, 066501 (2015).             %
     %   D.C. Langreth et al., J. Phys.: Condens. Matter 21, 084203 (2009). %
     %                                                                      %
     %                                                                      %
     % If you are calculating the stress with vdW-DF, please also cite:     %
     %                                                                      %
     %   R. Sabatini et al., J. Phys.: Condens. Matter 24, 424209 (2012).   %
     %                                                                      %
     %%%%%%%%%%%%%%%%%%%%%%%%%%%%%%%%%%%%%%%%%%%%%%%%%%%%%%%%%%%%%%%%%%%%%%%%

     Carrying out vdW-DF run using the following parameters:
     Nqs    =  20  Npoints =  1024  r_max =  100.000
     q_mesh =  0.00001000  0.04494208  0.09755937  0.15916263
               0.23128650  0.31572767  0.41458969  0.53033537
               0.66584808  0.82450364  1.01025438  1.22772762
               1.48234092  1.78043706  2.12944203  2.53805004
               3.01644009  3.57652955  4.23227104  5.00000000

     Non-local corr. energy    =       0.55299127 Ry

     Starting wfcs are   36 randomized atomic wfcs

     Self-consistent Calculation

     iteration #  1     ecut=    70.00 Ry     beta= 0.70
     Davidson diagonalization with overlap

     ethr =  1.00E-02,  avg # of iterations =  2.0

[...]

     total energy              =    -369.23248646 Ry
     estimated scf accuracy    <       0.89217263 Ry

[...]

     total energy              =    -369.76825282 Ry
     estimated scf accuracy    <       0.00000204 Ry

     iteration # 13     ecut=    70.00 Ry     beta= 0.70
     Davidson diagonalization with overlap

     ethr =  3.93E-09,  avg # of iterations =  3.9

     Non-local corr. energy    =       0.55242588 Ry

     End of self-consistent calculation

          k = 0.0000 0.0000 0.0000 (  7053 PWs)   bands (ev):

   -50.4056 -50.4053 -24.5838 -24.5835 -24.3351 -24.3349 -24.3319 -24.3317
    -3.9336  -3.6613  -2.7329  -2.2883   4.1513   5.1915   7.4725   7.8018
     7.8139   7.8242   7.8369   8.8770   8.9216   8.9755   9.0196   9.8016
     9.8136  11.0055

     occupation numbers
     1.0000   1.0000   1.0000   1.0000   1.0000   1.0000   1.0000   1.0000
     1.0000   1.0000   1.0000   1.0000   1.0000   1.0000   1.0000   1.0000
     1.0000   1.0000   1.0000   1.0000   1.0000   1.0000   1.0000   1.0000
     1.0000   1.0000

[...]

          k =-0.1111 0.0642 0.0000 (  7035 PWs)   bands (ev):

[...]

          k = 0.5556-0.0642 0.1273 (  7118 PWs)   bands (ev):

[...]

          k =-0.3333-0.5774 0.0849 (  7134 PWs)   bands (ev):

   -50.3571 -50.3568 -24.6439 -24.6437 -24.5983 -24.5981 -24.4892 -24.4889
    -1.5411  -1.5400  -1.5300  -1.5289   4.8431   4.9248   5.6735   5.6765
     6.1949   6.3285   6.6894   6.6921   7.5215   7.5269   8.2012   8.2041
    10.3055  10.3896

     occupation numbers
     1.0000   1.0000   1.0000   1.0000   1.0000   1.0000   1.0000   1.0000
     1.0000   1.0000   1.0000   1.0000   1.0000   1.0000   1.0000   1.0000
     1.0000   1.0000   1.0000   1.0000   1.0000   1.0000   1.0000   1.0000
     1.0000   1.0000

     highest occupied level (ev):    11.0055

!    total energy              =    -369.76825274 Ry
     estimated scf accuracy    <       0.00000038 Ry

     The total energy is the sum of the following terms:
     one-electron contribution =    -172.18535609 Ry
     hartree contribution      =     108.59379959 Ry
     xc contribution           =     -66.74224537 Ry
     ewald contribution        =    -239.43445088 Ry

     convergence has been achieved in  13 iterations

     Writing output data file ./tmp/BULK-MoS2.save/

     General routines

     Parallel routines

   This run was terminated on:  14:15:59  15Apr2024

   JOB DONE.